4045
Properties=species:S:1:pos:R:3 pbc="F F F"
Pt     -25.50340000      -5.88540000       0.00000000
Pt     -25.50340000      -3.92360000      -1.96180000
Pt     -25.50340000      -1.96180000      -3.92360000
Pt     -25.50340000      -3.92360000       1.96180000
Pt     -25.50340000      -1.96180000       0.00000000
Pt     -25.50340000      -1.96180000       3.92360000
Pt     -25.50340000       0.00000000      -5.88540000
Pt     -25.50340000       0.00000000      -1.96180000
Pt     -25.50340000       1.96180000      -3.92360000
Pt     -25.50340000       0.00000000       1.96180000
Pt     -25.50340000       1.96180000       0.00000000
Pt     -25.50340000       0.00000000       5.88540000
Pt     -25.50340000       1.96180000       3.92360000
Pt     -25.50340000       3.92360000      -1.96180000
Pt     -25.50340000       3.92360000       1.96180000
Pt     -25.50340000       5.88540000       0.00000000
Pt     -23.54160000      -9.80900000      -1.96180000
Pt     -21.57980000     -11.77080000      -1.96180000
Pt     -21.57980000      -9.80900000      -3.92360000
Pt     -23.54160000      -9.80900000       1.96180000
Pt     -21.57980000     -11.77080000       1.96180000
Pt     -21.57980000      -9.80900000       0.00000000
Pt     -21.57980000      -9.80900000       3.92360000
Pt     -23.54160000      -5.88540000      -5.88540000
Pt     -21.57980000      -7.84720000      -5.88540000
Pt     -21.57980000      -5.88540000      -7.84720000
Pt     -23.54160000      -7.84720000      -3.92360000
Pt     -23.54160000      -5.88540000      -1.96180000
Pt     -21.57980000      -7.84720000      -1.96180000
Pt     -21.57980000      -5.88540000      -3.92360000
Pt     -23.54160000      -7.84720000       0.00000000
Pt     -23.54160000      -5.88540000       1.96180000
Pt     -21.57980000      -7.84720000       1.96180000
Pt     -21.57980000      -5.88540000       0.00000000
Pt     -23.54160000      -7.84720000       3.92360000
Pt     -23.54160000      -5.88540000       5.88540000
Pt     -21.57980000      -7.84720000       5.88540000
Pt     -21.57980000      -5.88540000       3.92360000
Pt     -21.57980000      -5.88540000       7.84720000
Pt     -23.54160000      -1.96180000      -9.80900000
Pt     -21.57980000      -3.92360000      -9.80900000
Pt     -21.57980000      -1.96180000     -11.77080000
Pt     -23.54160000      -3.92360000      -7.84720000
Pt     -23.54160000      -1.96180000      -5.88540000
Pt     -21.57980000      -3.92360000      -5.88540000
Pt     -21.57980000      -1.96180000      -7.84720000
Pt     -23.54160000      -3.92360000      -3.92360000
Pt     -23.54160000      -1.96180000      -1.96180000
Pt     -21.57980000      -3.92360000      -1.96180000
Pt     -21.57980000      -1.96180000      -3.92360000
Pt     -23.54160000      -3.92360000       0.00000000
Pt     -23.54160000      -1.96180000       1.96180000
Pt     -21.57980000      -3.92360000       1.96180000
Pt     -21.57980000      -1.96180000       0.00000000
Pt     -23.54160000      -3.92360000       3.92360000
Pt     -23.54160000      -1.96180000       5.88540000
Pt     -21.57980000      -3.92360000       5.88540000
Pt     -21.57980000      -1.96180000       3.92360000
Pt     -23.54160000      -3.92360000       7.84720000
Pt     -23.54160000      -1.96180000       9.80900000
Pt     -21.57980000      -3.92360000       9.80900000
Pt     -21.57980000      -1.96180000       7.84720000
Pt     -21.57980000      -1.96180000      11.77080000
Pt     -23.54160000       1.96180000      -9.80900000
Pt     -21.57980000       0.00000000      -9.80900000
Pt     -21.57980000       1.96180000     -11.77080000
Pt     -23.54160000       0.00000000      -7.84720000
Pt     -23.54160000       1.96180000      -5.88540000
Pt     -21.57980000       0.00000000      -5.88540000
Pt     -21.57980000       1.96180000      -7.84720000
Pt     -23.54160000       0.00000000      -3.92360000
Pt     -23.54160000       1.96180000      -1.96180000
Pt     -21.57980000       0.00000000      -1.96180000
Pt     -21.57980000       1.96180000      -3.92360000
Pt     -23.54160000       0.00000000       0.00000000
Pt     -23.54160000       1.96180000       1.96180000
Pt     -21.57980000       0.00000000       1.96180000
Pt     -21.57980000       1.96180000       0.00000000
Pt     -23.54160000       0.00000000       3.92360000
Pt     -23.54160000       1.96180000       5.88540000
Pt     -21.57980000       0.00000000       5.88540000
Pt     -21.57980000       1.96180000       3.92360000
Pt     -23.54160000       0.00000000       7.84720000
Pt     -23.54160000       1.96180000       9.80900000
Pt     -21.57980000       0.00000000       9.80900000
Pt     -21.57980000       1.96180000       7.84720000
Pt     -21.57980000       1.96180000      11.77080000
Pt     -21.57980000       3.92360000      -9.80900000
Pt     -23.54160000       3.92360000      -7.84720000
Pt     -23.54160000       5.88540000      -5.88540000
Pt     -21.57980000       3.92360000      -5.88540000
Pt     -21.57980000       5.88540000      -7.84720000
Pt     -23.54160000       3.92360000      -3.92360000
Pt     -23.54160000       5.88540000      -1.96180000
Pt     -21.57980000       3.92360000      -1.96180000
Pt     -21.57980000       5.88540000      -3.92360000
Pt     -23.54160000       3.92360000       0.00000000
Pt     -23.54160000       5.88540000       1.96180000
Pt     -21.57980000       3.92360000       1.96180000
Pt     -21.57980000       5.88540000       0.00000000
Pt     -23.54160000       3.92360000       3.92360000
Pt     -23.54160000       5.88540000       5.88540000
Pt     -21.57980000       3.92360000       5.88540000
Pt     -21.57980000       5.88540000       3.92360000
Pt     -23.54160000       3.92360000       7.84720000
Pt     -21.57980000       3.92360000       9.80900000
Pt     -21.57980000       5.88540000       7.84720000
Pt     -21.57980000       7.84720000      -5.88540000
Pt     -23.54160000       7.84720000      -3.92360000
Pt     -23.54160000       9.80900000      -1.96180000
Pt     -21.57980000       7.84720000      -1.96180000
Pt     -21.57980000       9.80900000      -3.92360000
Pt     -23.54160000       7.84720000       0.00000000
Pt     -23.54160000       9.80900000       1.96180000
Pt     -21.57980000       7.84720000       1.96180000
Pt     -21.57980000       9.80900000       0.00000000
Pt     -23.54160000       7.84720000       3.92360000
Pt     -21.57980000       7.84720000       5.88540000
Pt     -21.57980000       9.80900000       3.92360000
Pt     -21.57980000      11.77080000      -1.96180000
Pt     -21.57980000      11.77080000       1.96180000
Pt     -19.61800000     -13.73260000      -1.96180000
Pt     -17.65620000     -15.69440000      -1.96180000
Pt     -17.65620000     -13.73260000      -3.92360000
Pt     -19.61800000     -13.73260000       1.96180000
Pt     -17.65620000     -15.69440000       1.96180000
Pt     -17.65620000     -13.73260000       0.00000000
Pt     -17.65620000     -13.73260000       3.92360000
Pt     -19.61800000      -9.80900000      -5.88540000
Pt     -17.65620000     -11.77080000      -5.88540000
Pt     -17.65620000      -9.80900000      -7.84720000
Pt     -19.61800000     -11.77080000      -3.92360000
Pt     -19.61800000      -9.80900000      -1.96180000
Pt     -17.65620000     -11.77080000      -1.96180000
Pt     -17.65620000      -9.80900000      -3.92360000
Pt     -19.61800000     -11.77080000       0.00000000
Pt     -19.61800000      -9.80900000       1.96180000
Pt     -17.65620000     -11.77080000       1.96180000
Pt     -17.65620000      -9.80900000       0.00000000
Pt     -19.61800000     -11.77080000       3.92360000
Pt     -19.61800000      -9.80900000       5.88540000
Pt     -17.65620000     -11.77080000       5.88540000
Pt     -17.65620000      -9.80900000       3.92360000
Pt     -17.65620000      -9.80900000       7.84720000
Pt     -19.61800000      -5.88540000      -9.80900000
Pt     -17.65620000      -7.84720000      -9.80900000
Pt     -17.65620000      -5.88540000     -11.77080000
Pt     -19.61800000      -7.84720000      -7.84720000
Pt     -19.61800000      -5.88540000      -5.88540000
Pt     -17.65620000      -7.84720000      -5.88540000
Pt     -17.65620000      -5.88540000      -7.84720000
Pt     -19.61800000      -7.84720000      -3.92360000
Pt     -19.61800000      -5.88540000      -1.96180000
Pt     -17.65620000      -7.84720000      -1.96180000
Pt     -17.65620000      -5.88540000      -3.92360000
Pt     -19.61800000      -7.84720000       0.00000000
Pt     -19.61800000      -5.88540000       1.96180000
Pt     -17.65620000      -7.84720000       1.96180000
Pt     -17.65620000      -5.88540000       0.00000000
Pt     -19.61800000      -7.84720000       3.92360000
Pt     -19.61800000      -5.88540000       5.88540000
Pt     -17.65620000      -7.84720000       5.88540000
Pt     -17.65620000      -5.88540000       3.92360000
Pt     -19.61800000      -7.84720000       7.84720000
Pt     -19.61800000      -5.88540000       9.80900000
Pt     -17.65620000      -7.84720000       9.80900000
Pt     -17.65620000      -5.88540000       7.84720000
Pt     -17.65620000      -5.88540000      11.77080000
Pt     -19.61800000      -1.96180000     -13.73260000
Pt     -17.65620000      -3.92360000     -13.73260000
Pt     -17.65620000      -1.96180000     -15.69440000
Pt     -19.61800000      -3.92360000     -11.77080000
Pt     -19.61800000      -1.96180000      -9.80900000
Pt     -17.65620000      -3.92360000      -9.80900000
Pt     -17.65620000      -1.96180000     -11.77080000
Pt     -19.61800000      -3.92360000      -7.84720000
Pt     -19.61800000      -1.96180000      -5.88540000
Pt     -17.65620000      -3.92360000      -5.88540000
Pt     -17.65620000      -1.96180000      -7.84720000
Pt     -19.61800000      -3.92360000      -3.92360000
Pt     -19.61800000      -1.96180000      -1.96180000
Pt     -17.65620000      -3.92360000      -1.96180000
Pt     -17.65620000      -1.96180000      -3.92360000
Pt     -19.61800000      -3.92360000       0.00000000
Pt     -19.61800000      -1.96180000       1.96180000
Pt     -17.65620000      -3.92360000       1.96180000
Pt     -17.65620000      -1.96180000       0.00000000
Pt     -19.61800000      -3.92360000       3.92360000
Pt     -19.61800000      -1.96180000       5.88540000
Pt     -17.65620000      -3.92360000       5.88540000
Pt     -17.65620000      -1.96180000       3.92360000
Pt     -19.61800000      -3.92360000       7.84720000
Pt     -19.61800000      -1.96180000       9.80900000
Pt     -17.65620000      -3.92360000       9.80900000
Pt     -17.65620000      -1.96180000       7.84720000
Pt     -19.61800000      -3.92360000      11.77080000
Pt     -19.61800000      -1.96180000      13.73260000
Pt     -17.65620000      -3.92360000      13.73260000
Pt     -17.65620000      -1.96180000      11.77080000
Pt     -17.65620000      -1.96180000      15.69440000
Pt     -19.61800000       1.96180000     -13.73260000
Pt     -17.65620000       0.00000000     -13.73260000
Pt     -17.65620000       1.96180000     -15.69440000
Pt     -19.61800000       0.00000000     -11.77080000
Pt     -19.61800000       1.96180000      -9.80900000
Pt     -17.65620000       0.00000000      -9.80900000
Pt     -17.65620000       1.96180000     -11.77080000
Pt     -19.61800000       0.00000000      -7.84720000
Pt     -19.61800000       1.96180000      -5.88540000
Pt     -17.65620000       0.00000000      -5.88540000
Pt     -17.65620000       1.96180000      -7.84720000
Pt     -19.61800000       0.00000000      -3.92360000
Pt     -19.61800000       1.96180000      -1.96180000
Pt     -17.65620000       0.00000000      -1.96180000
Pt     -17.65620000       1.96180000      -3.92360000
Pt     -19.61800000       0.00000000       0.00000000
Pt     -19.61800000       1.96180000       1.96180000
Pt     -17.65620000       0.00000000       1.96180000
Pt     -17.65620000       1.96180000       0.00000000
Pt     -19.61800000       0.00000000       3.92360000
Pt     -19.61800000       1.96180000       5.88540000
Pt     -17.65620000       0.00000000       5.88540000
Pt     -17.65620000       1.96180000       3.92360000
Pt     -19.61800000       0.00000000       7.84720000
Pt     -19.61800000       1.96180000       9.80900000
Pt     -17.65620000       0.00000000       9.80900000
Pt     -17.65620000       1.96180000       7.84720000
Pt     -19.61800000       0.00000000      11.77080000
Pt     -19.61800000       1.96180000      13.73260000
Pt     -17.65620000       0.00000000      13.73260000
Pt     -17.65620000       1.96180000      11.77080000
Pt     -17.65620000       1.96180000      15.69440000
Pt     -17.65620000       3.92360000     -13.73260000
Pt     -19.61800000       3.92360000     -11.77080000
Pt     -19.61800000       5.88540000      -9.80900000
Pt     -17.65620000       3.92360000      -9.80900000
Pt     -17.65620000       5.88540000     -11.77080000
Pt     -19.61800000       3.92360000      -7.84720000
Pt     -19.61800000       5.88540000      -5.88540000
Pt     -17.65620000       3.92360000      -5.88540000
Pt     -17.65620000       5.88540000      -7.84720000
Pt     -19.61800000       3.92360000      -3.92360000
Pt     -19.61800000       5.88540000      -1.96180000
Pt     -17.65620000       3.92360000      -1.96180000
Pt     -17.65620000       5.88540000      -3.92360000
Pt     -19.61800000       3.92360000       0.00000000
Pt     -19.61800000       5.88540000       1.96180000
Pt     -17.65620000       3.92360000       1.96180000
Pt     -17.65620000       5.88540000       0.00000000
Pt     -19.61800000       3.92360000       3.92360000
Pt     -19.61800000       5.88540000       5.88540000
Pt     -17.65620000       3.92360000       5.88540000
Pt     -17.65620000       5.88540000       3.92360000
Pt     -19.61800000       3.92360000       7.84720000
Pt     -19.61800000       5.88540000       9.80900000
Pt     -17.65620000       3.92360000       9.80900000
Pt     -17.65620000       5.88540000       7.84720000
Pt     -19.61800000       3.92360000      11.77080000
Pt     -17.65620000       3.92360000      13.73260000
Pt     -17.65620000       5.88540000      11.77080000
Pt     -17.65620000       7.84720000      -9.80900000
Pt     -19.61800000       7.84720000      -7.84720000
Pt     -19.61800000       9.80900000      -5.88540000
Pt     -17.65620000       7.84720000      -5.88540000
Pt     -17.65620000       9.80900000      -7.84720000
Pt     -19.61800000       7.84720000      -3.92360000
Pt     -19.61800000       9.80900000      -1.96180000
Pt     -17.65620000       7.84720000      -1.96180000
Pt     -17.65620000       9.80900000      -3.92360000
Pt     -19.61800000       7.84720000       0.00000000
Pt     -19.61800000       9.80900000       1.96180000
Pt     -17.65620000       7.84720000       1.96180000
Pt     -17.65620000       9.80900000       0.00000000
Pt     -19.61800000       7.84720000       3.92360000
Pt     -19.61800000       9.80900000       5.88540000
Pt     -17.65620000       7.84720000       5.88540000
Pt     -17.65620000       9.80900000       3.92360000
Pt     -19.61800000       7.84720000       7.84720000
Pt     -17.65620000       7.84720000       9.80900000
Pt     -17.65620000       9.80900000       7.84720000
Pt     -17.65620000      11.77080000      -5.88540000
Pt     -19.61800000      11.77080000      -3.92360000
Pt     -19.61800000      13.73260000      -1.96180000
Pt     -17.65620000      11.77080000      -1.96180000
Pt     -17.65620000      13.73260000      -3.92360000
Pt     -19.61800000      11.77080000       0.00000000
Pt     -19.61800000      13.73260000       1.96180000
Pt     -17.65620000      11.77080000       1.96180000
Pt     -17.65620000      13.73260000       0.00000000
Pt     -19.61800000      11.77080000       3.92360000
Pt     -17.65620000      11.77080000       5.88540000
Pt     -17.65620000      13.73260000       3.92360000
Pt     -17.65620000      15.69440000      -1.96180000
Pt     -17.65620000      15.69440000       1.96180000
Pt     -15.69440000     -17.65620000      -1.96180000
Pt     -13.73260000     -19.61800000      -1.96180000
Pt     -13.73260000     -17.65620000      -3.92360000
Pt     -15.69440000     -17.65620000       1.96180000
Pt     -13.73260000     -19.61800000       1.96180000
Pt     -13.73260000     -17.65620000       0.00000000
Pt     -13.73260000     -17.65620000       3.92360000
Pt     -15.69440000     -13.73260000      -5.88540000
Pt     -13.73260000     -15.69440000      -5.88540000
Pt     -13.73260000     -13.73260000      -7.84720000
Pt     -15.69440000     -15.69440000      -3.92360000
Pt     -15.69440000     -13.73260000      -1.96180000
Pt     -13.73260000     -15.69440000      -1.96180000
Pt     -13.73260000     -13.73260000      -3.92360000
Pt     -15.69440000     -15.69440000       0.00000000
Pt     -15.69440000     -13.73260000       1.96180000
Pt     -13.73260000     -15.69440000       1.96180000
Pt     -13.73260000     -13.73260000       0.00000000
Pt     -15.69440000     -15.69440000       3.92360000
Pt     -15.69440000     -13.73260000       5.88540000
Pt     -13.73260000     -15.69440000       5.88540000
Pt     -13.73260000     -13.73260000       3.92360000
Pt     -13.73260000     -13.73260000       7.84720000
Pt     -15.69440000      -9.80900000      -9.80900000
Pt     -13.73260000     -11.77080000      -9.80900000
Pt     -13.73260000      -9.80900000     -11.77080000
Pt     -15.69440000     -11.77080000      -7.84720000
Pt     -15.69440000      -9.80900000      -5.88540000
Pt     -13.73260000     -11.77080000      -5.88540000
Pt     -13.73260000      -9.80900000      -7.84720000
Pt     -15.69440000     -11.77080000      -3.92360000
Pt     -15.69440000      -9.80900000      -1.96180000
Pt     -13.73260000     -11.77080000      -1.96180000
Pt     -13.73260000      -9.80900000      -3.92360000
Pt     -15.69440000     -11.77080000       0.00000000
Pt     -15.69440000      -9.80900000       1.96180000
Pt     -13.73260000     -11.77080000       1.96180000
Pt     -13.73260000      -9.80900000       0.00000000
Pt     -15.69440000     -11.77080000       3.92360000
Pt     -15.69440000      -9.80900000       5.88540000
Pt     -13.73260000     -11.77080000       5.88540000
Pt     -13.73260000      -9.80900000       3.92360000
Pt     -15.69440000     -11.77080000       7.84720000
Pt     -15.69440000      -9.80900000       9.80900000
Pt     -13.73260000     -11.77080000       9.80900000
Pt     -13.73260000      -9.80900000       7.84720000
Pt     -13.73260000      -9.80900000      11.77080000
Pt     -15.69440000      -5.88540000     -13.73260000
Pt     -13.73260000      -7.84720000     -13.73260000
Pt     -13.73260000      -5.88540000     -15.69440000
Pt     -15.69440000      -7.84720000     -11.77080000
Pt     -15.69440000      -5.88540000      -9.80900000
Pt     -13.73260000      -7.84720000      -9.80900000
Pt     -13.73260000      -5.88540000     -11.77080000
Pt     -15.69440000      -7.84720000      -7.84720000
Pt     -15.69440000      -5.88540000      -5.88540000
Pt     -13.73260000      -7.84720000      -5.88540000
Pt     -13.73260000      -5.88540000      -7.84720000
Pt     -15.69440000      -7.84720000      -3.92360000
Pt     -15.69440000      -5.88540000      -1.96180000
Pt     -13.73260000      -7.84720000      -1.96180000
Pt     -13.73260000      -5.88540000      -3.92360000
Pt     -15.69440000      -7.84720000       0.00000000
Pt     -15.69440000      -5.88540000       1.96180000
Pt     -13.73260000      -7.84720000       1.96180000
Pt     -13.73260000      -5.88540000       0.00000000
Pt     -15.69440000      -7.84720000       3.92360000
Pt     -15.69440000      -5.88540000       5.88540000
Pt     -13.73260000      -7.84720000       5.88540000
Pt     -13.73260000      -5.88540000       3.92360000
Pt     -15.69440000      -7.84720000       7.84720000
Pt     -15.69440000      -5.88540000       9.80900000
Pt     -13.73260000      -7.84720000       9.80900000
Pt     -13.73260000      -5.88540000       7.84720000
Pt     -15.69440000      -7.84720000      11.77080000
Pt     -15.69440000      -5.88540000      13.73260000
Pt     -13.73260000      -7.84720000      13.73260000
Pt     -13.73260000      -5.88540000      11.77080000
Pt     -13.73260000      -5.88540000      15.69440000
Pt     -15.69440000      -1.96180000     -17.65620000
Pt     -13.73260000      -3.92360000     -17.65620000
Pt     -13.73260000      -1.96180000     -19.61800000
Pt     -15.69440000      -3.92360000     -15.69440000
Pt     -15.69440000      -1.96180000     -13.73260000
Pt     -13.73260000      -3.92360000     -13.73260000
Pt     -13.73260000      -1.96180000     -15.69440000
Pt     -15.69440000      -3.92360000     -11.77080000
Pt     -15.69440000      -1.96180000      -9.80900000
Pt     -13.73260000      -3.92360000      -9.80900000
Pt     -13.73260000      -1.96180000     -11.77080000
Pt     -15.69440000      -3.92360000      -7.84720000
Pt     -15.69440000      -1.96180000      -5.88540000
Pt     -13.73260000      -3.92360000      -5.88540000
Pt     -13.73260000      -1.96180000      -7.84720000
Pt     -15.69440000      -3.92360000      -3.92360000
Pt     -15.69440000      -1.96180000      -1.96180000
Pt     -13.73260000      -3.92360000      -1.96180000
Pt     -13.73260000      -1.96180000      -3.92360000
Pt     -15.69440000      -3.92360000       0.00000000
Pt     -15.69440000      -1.96180000       1.96180000
Pt     -13.73260000      -3.92360000       1.96180000
Pt     -13.73260000      -1.96180000       0.00000000
Pt     -15.69440000      -3.92360000       3.92360000
Pt     -15.69440000      -1.96180000       5.88540000
Pt     -13.73260000      -3.92360000       5.88540000
Pt     -13.73260000      -1.96180000       3.92360000
Pt     -15.69440000      -3.92360000       7.84720000
Pt     -15.69440000      -1.96180000       9.80900000
Pt     -13.73260000      -3.92360000       9.80900000
Pt     -13.73260000      -1.96180000       7.84720000
Pt     -15.69440000      -3.92360000      11.77080000
Pt     -15.69440000      -1.96180000      13.73260000
Pt     -13.73260000      -3.92360000      13.73260000
Pt     -13.73260000      -1.96180000      11.77080000
Pt     -15.69440000      -3.92360000      15.69440000
Pt     -15.69440000      -1.96180000      17.65620000
Pt     -13.73260000      -3.92360000      17.65620000
Pt     -13.73260000      -1.96180000      15.69440000
Pt     -13.73260000      -1.96180000      19.61800000
Pt     -15.69440000       1.96180000     -17.65620000
Pt     -13.73260000       0.00000000     -17.65620000
Pt     -13.73260000       1.96180000     -19.61800000
Pt     -15.69440000       0.00000000     -15.69440000
Pt     -15.69440000       1.96180000     -13.73260000
Pt     -13.73260000       0.00000000     -13.73260000
Pt     -13.73260000       1.96180000     -15.69440000
Pt     -15.69440000       0.00000000     -11.77080000
Pt     -15.69440000       1.96180000      -9.80900000
Pt     -13.73260000       0.00000000      -9.80900000
Pt     -13.73260000       1.96180000     -11.77080000
Pt     -15.69440000       0.00000000      -7.84720000
Pt     -15.69440000       1.96180000      -5.88540000
Pt     -13.73260000       0.00000000      -5.88540000
Pt     -13.73260000       1.96180000      -7.84720000
Pt     -15.69440000       0.00000000      -3.92360000
Pt     -15.69440000       1.96180000      -1.96180000
Pt     -13.73260000       0.00000000      -1.96180000
Pt     -13.73260000       1.96180000      -3.92360000
Pt     -15.69440000       0.00000000       0.00000000
Pt     -15.69440000       1.96180000       1.96180000
Pt     -13.73260000       0.00000000       1.96180000
Pt     -13.73260000       1.96180000       0.00000000
Pt     -15.69440000       0.00000000       3.92360000
Pt     -15.69440000       1.96180000       5.88540000
Pt     -13.73260000       0.00000000       5.88540000
Pt     -13.73260000       1.96180000       3.92360000
Pt     -15.69440000       0.00000000       7.84720000
Pt     -15.69440000       1.96180000       9.80900000
Pt     -13.73260000       0.00000000       9.80900000
Pt     -13.73260000       1.96180000       7.84720000
Pt     -15.69440000       0.00000000      11.77080000
Pt     -15.69440000       1.96180000      13.73260000
Pt     -13.73260000       0.00000000      13.73260000
Pt     -13.73260000       1.96180000      11.77080000
Pt     -15.69440000       0.00000000      15.69440000
Pt     -15.69440000       1.96180000      17.65620000
Pt     -13.73260000       0.00000000      17.65620000
Pt     -13.73260000       1.96180000      15.69440000
Pt     -13.73260000       1.96180000      19.61800000
Pt     -13.73260000       3.92360000     -17.65620000
Pt     -15.69440000       3.92360000     -15.69440000
Pt     -15.69440000       5.88540000     -13.73260000
Pt     -13.73260000       3.92360000     -13.73260000
Pt     -13.73260000       5.88540000     -15.69440000
Pt     -15.69440000       3.92360000     -11.77080000
Pt     -15.69440000       5.88540000      -9.80900000
Pt     -13.73260000       3.92360000      -9.80900000
Pt     -13.73260000       5.88540000     -11.77080000
Pt     -15.69440000       3.92360000      -7.84720000
Pt     -15.69440000       5.88540000      -5.88540000
Pt     -13.73260000       3.92360000      -5.88540000
Pt     -13.73260000       5.88540000      -7.84720000
Pt     -15.69440000       3.92360000      -3.92360000
Pt     -15.69440000       5.88540000      -1.96180000
Pt     -13.73260000       3.92360000      -1.96180000
Pt     -13.73260000       5.88540000      -3.92360000
Pt     -15.69440000       3.92360000       0.00000000
Pt     -15.69440000       5.88540000       1.96180000
Pt     -13.73260000       3.92360000       1.96180000
Pt     -13.73260000       5.88540000       0.00000000
Pt     -15.69440000       3.92360000       3.92360000
Pt     -15.69440000       5.88540000       5.88540000
Pt     -13.73260000       3.92360000       5.88540000
Pt     -13.73260000       5.88540000       3.92360000
Pt     -15.69440000       3.92360000       7.84720000
Pt     -15.69440000       5.88540000       9.80900000
Pt     -13.73260000       3.92360000       9.80900000
Pt     -13.73260000       5.88540000       7.84720000
Pt     -15.69440000       3.92360000      11.77080000
Pt     -15.69440000       5.88540000      13.73260000
Pt     -13.73260000       3.92360000      13.73260000
Pt     -13.73260000       5.88540000      11.77080000
Pt     -15.69440000       3.92360000      15.69440000
Pt     -13.73260000       3.92360000      17.65620000
Pt     -13.73260000       5.88540000      15.69440000
Pt     -13.73260000       7.84720000     -13.73260000
Pt     -15.69440000       7.84720000     -11.77080000
Pt     -15.69440000       9.80900000      -9.80900000
Pt     -13.73260000       7.84720000      -9.80900000
Pt     -13.73260000       9.80900000     -11.77080000
Pt     -15.69440000       7.84720000      -7.84720000
Pt     -15.69440000       9.80900000      -5.88540000
Pt     -13.73260000       7.84720000      -5.88540000
Pt     -13.73260000       9.80900000      -7.84720000
Pt     -15.69440000       7.84720000      -3.92360000
Pt     -15.69440000       9.80900000      -1.96180000
Pt     -13.73260000       7.84720000      -1.96180000
Pt     -13.73260000       9.80900000      -3.92360000
Pt     -15.69440000       7.84720000       0.00000000
Pt     -15.69440000       9.80900000       1.96180000
Pt     -13.73260000       7.84720000       1.96180000
Pt     -13.73260000       9.80900000       0.00000000
Pt     -15.69440000       7.84720000       3.92360000
Pt     -15.69440000       9.80900000       5.88540000
Pt     -13.73260000       7.84720000       5.88540000
Pt     -13.73260000       9.80900000       3.92360000
Pt     -15.69440000       7.84720000       7.84720000
Pt     -15.69440000       9.80900000       9.80900000
Pt     -13.73260000       7.84720000       9.80900000
Pt     -13.73260000       9.80900000       7.84720000
Pt     -15.69440000       7.84720000      11.77080000
Pt     -13.73260000       7.84720000      13.73260000
Pt     -13.73260000       9.80900000      11.77080000
Pt     -13.73260000      11.77080000      -9.80900000
Pt     -15.69440000      11.77080000      -7.84720000
Pt     -15.69440000      13.73260000      -5.88540000
Pt     -13.73260000      11.77080000      -5.88540000
Pt     -13.73260000      13.73260000      -7.84720000
Pt     -15.69440000      11.77080000      -3.92360000
Pt     -15.69440000      13.73260000      -1.96180000
Pt     -13.73260000      11.77080000      -1.96180000
Pt     -13.73260000      13.73260000      -3.92360000
Pt     -15.69440000      11.77080000       0.00000000
Pt     -15.69440000      13.73260000       1.96180000
Pt     -13.73260000      11.77080000       1.96180000
Pt     -13.73260000      13.73260000       0.00000000
Pt     -15.69440000      11.77080000       3.92360000
Pt     -15.69440000      13.73260000       5.88540000
Pt     -13.73260000      11.77080000       5.88540000
Pt     -13.73260000      13.73260000       3.92360000
Pt     -15.69440000      11.77080000       7.84720000
Pt     -13.73260000      11.77080000       9.80900000
Pt     -13.73260000      13.73260000       7.84720000
Pt     -13.73260000      15.69440000      -5.88540000
Pt     -15.69440000      15.69440000      -3.92360000
Pt     -15.69440000      17.65620000      -1.96180000
Pt     -13.73260000      15.69440000      -1.96180000
Pt     -13.73260000      17.65620000      -3.92360000
Pt     -15.69440000      15.69440000       0.00000000
Pt     -15.69440000      17.65620000       1.96180000
Pt     -13.73260000      15.69440000       1.96180000
Pt     -13.73260000      17.65620000       0.00000000
Pt     -15.69440000      15.69440000       3.92360000
Pt     -13.73260000      15.69440000       5.88540000
Pt     -13.73260000      17.65620000       3.92360000
Pt     -13.73260000      19.61800000      -1.96180000
Pt     -13.73260000      19.61800000       1.96180000
Pt     -11.77080000     -21.57980000      -1.96180000
Pt      -9.80900000     -23.54160000      -1.96180000
Pt      -9.80900000     -21.57980000      -3.92360000
Pt     -11.77080000     -21.57980000       1.96180000
Pt      -9.80900000     -23.54160000       1.96180000
Pt      -9.80900000     -21.57980000       0.00000000
Pt      -9.80900000     -21.57980000       3.92360000
Pt     -11.77080000     -17.65620000      -5.88540000
Pt      -9.80900000     -19.61800000      -5.88540000
Pt      -9.80900000     -17.65620000      -7.84720000
Pt     -11.77080000     -19.61800000      -3.92360000
Pt     -11.77080000     -17.65620000      -1.96180000
Pt      -9.80900000     -19.61800000      -1.96180000
Pt      -9.80900000     -17.65620000      -3.92360000
Pt     -11.77080000     -19.61800000       0.00000000
Pt     -11.77080000     -17.65620000       1.96180000
Pt      -9.80900000     -19.61800000       1.96180000
Pt      -9.80900000     -17.65620000       0.00000000
Pt     -11.77080000     -19.61800000       3.92360000
Pt     -11.77080000     -17.65620000       5.88540000
Pt      -9.80900000     -19.61800000       5.88540000
Pt      -9.80900000     -17.65620000       3.92360000
Pt      -9.80900000     -17.65620000       7.84720000
Pt     -11.77080000     -13.73260000      -9.80900000
Pt      -9.80900000     -15.69440000      -9.80900000
Pt      -9.80900000     -13.73260000     -11.77080000
Pt     -11.77080000     -15.69440000      -7.84720000
Pt     -11.77080000     -13.73260000      -5.88540000
Pt      -9.80900000     -15.69440000      -5.88540000
Pt      -9.80900000     -13.73260000      -7.84720000
Pt     -11.77080000     -15.69440000      -3.92360000
Pt     -11.77080000     -13.73260000      -1.96180000
Pt      -9.80900000     -15.69440000      -1.96180000
Pt      -9.80900000     -13.73260000      -3.92360000
Pt     -11.77080000     -15.69440000       0.00000000
Pt     -11.77080000     -13.73260000       1.96180000
Pt      -9.80900000     -15.69440000       1.96180000
Pt      -9.80900000     -13.73260000       0.00000000
Pt     -11.77080000     -15.69440000       3.92360000
Pt     -11.77080000     -13.73260000       5.88540000
Pt      -9.80900000     -15.69440000       5.88540000
Pt      -9.80900000     -13.73260000       3.92360000
Pt     -11.77080000     -15.69440000       7.84720000
Pt     -11.77080000     -13.73260000       9.80900000
Pt      -9.80900000     -15.69440000       9.80900000
Pt      -9.80900000     -13.73260000       7.84720000
Pt      -9.80900000     -13.73260000      11.77080000
Pt     -11.77080000      -9.80900000     -13.73260000
Pt      -9.80900000     -11.77080000     -13.73260000
Pt      -9.80900000      -9.80900000     -15.69440000
Pt     -11.77080000     -11.77080000     -11.77080000
Pt     -11.77080000      -9.80900000      -9.80900000
Pt      -9.80900000     -11.77080000      -9.80900000
Pt      -9.80900000      -9.80900000     -11.77080000
Pt     -11.77080000     -11.77080000      -7.84720000
Pt     -11.77080000      -9.80900000      -5.88540000
Pt      -9.80900000     -11.77080000      -5.88540000
Pt      -9.80900000      -9.80900000      -7.84720000
Pt     -11.77080000     -11.77080000      -3.92360000
Pt     -11.77080000      -9.80900000      -1.96180000
Pt      -9.80900000     -11.77080000      -1.96180000
Pt      -9.80900000      -9.80900000      -3.92360000
Pt     -11.77080000     -11.77080000       0.00000000
Pt     -11.77080000      -9.80900000       1.96180000
Pt      -9.80900000     -11.77080000       1.96180000
Pt      -9.80900000      -9.80900000       0.00000000
Pt     -11.77080000     -11.77080000       3.92360000
Pt     -11.77080000      -9.80900000       5.88540000
Pt      -9.80900000     -11.77080000       5.88540000
Pt      -9.80900000      -9.80900000       3.92360000
Pt     -11.77080000     -11.77080000       7.84720000
Pt     -11.77080000      -9.80900000       9.80900000
Pt      -9.80900000     -11.77080000       9.80900000
Pt      -9.80900000      -9.80900000       7.84720000
Pt     -11.77080000     -11.77080000      11.77080000
Pt     -11.77080000      -9.80900000      13.73260000
Pt      -9.80900000     -11.77080000      13.73260000
Pt      -9.80900000      -9.80900000      11.77080000
Pt      -9.80900000      -9.80900000      15.69440000
Pt     -11.77080000      -5.88540000     -17.65620000
Pt      -9.80900000      -7.84720000     -17.65620000
Pt      -9.80900000      -5.88540000     -19.61800000
Pt     -11.77080000      -7.84720000     -15.69440000
Pt     -11.77080000      -5.88540000     -13.73260000
Pt      -9.80900000      -7.84720000     -13.73260000
Pt      -9.80900000      -5.88540000     -15.69440000
Pt     -11.77080000      -7.84720000     -11.77080000
Pt     -11.77080000      -5.88540000      -9.80900000
Pt      -9.80900000      -7.84720000      -9.80900000
Pt      -9.80900000      -5.88540000     -11.77080000
Pt     -11.77080000      -7.84720000      -7.84720000
Pt     -11.77080000      -5.88540000      -5.88540000
Pt      -9.80900000      -7.84720000      -5.88540000
Pt      -9.80900000      -5.88540000      -7.84720000
Pt     -11.77080000      -7.84720000      -3.92360000
Pt     -11.77080000      -5.88540000      -1.96180000
Pt      -9.80900000      -7.84720000      -1.96180000
Pt      -9.80900000      -5.88540000      -3.92360000
Pt     -11.77080000      -7.84720000       0.00000000
Pt     -11.77080000      -5.88540000       1.96180000
Pt      -9.80900000      -7.84720000       1.96180000
Pt      -9.80900000      -5.88540000       0.00000000
Pt     -11.77080000      -7.84720000       3.92360000
Pt     -11.77080000      -5.88540000       5.88540000
Pt      -9.80900000      -7.84720000       5.88540000
Pt      -9.80900000      -5.88540000       3.92360000
Pt     -11.77080000      -7.84720000       7.84720000
Pt     -11.77080000      -5.88540000       9.80900000
Pt      -9.80900000      -7.84720000       9.80900000
Pt      -9.80900000      -5.88540000       7.84720000
Pt     -11.77080000      -7.84720000      11.77080000
Pt     -11.77080000      -5.88540000      13.73260000
Pt      -9.80900000      -7.84720000      13.73260000
Pt      -9.80900000      -5.88540000      11.77080000
Pt     -11.77080000      -7.84720000      15.69440000
Pt     -11.77080000      -5.88540000      17.65620000
Pt      -9.80900000      -7.84720000      17.65620000
Pt      -9.80900000      -5.88540000      15.69440000
Pt      -9.80900000      -5.88540000      19.61800000
Pt     -11.77080000      -1.96180000     -21.57980000
Pt      -9.80900000      -3.92360000     -21.57980000
Pt      -9.80900000      -1.96180000     -23.54160000
Pt     -11.77080000      -3.92360000     -19.61800000
Pt     -11.77080000      -1.96180000     -17.65620000
Pt      -9.80900000      -3.92360000     -17.65620000
Pt      -9.80900000      -1.96180000     -19.61800000
Pt     -11.77080000      -3.92360000     -15.69440000
Pt     -11.77080000      -1.96180000     -13.73260000
Pt      -9.80900000      -3.92360000     -13.73260000
Pt      -9.80900000      -1.96180000     -15.69440000
Pt     -11.77080000      -3.92360000     -11.77080000
Pt     -11.77080000      -1.96180000      -9.80900000
Pt      -9.80900000      -3.92360000      -9.80900000
Pt      -9.80900000      -1.96180000     -11.77080000
Pt     -11.77080000      -3.92360000      -7.84720000
Pt     -11.77080000      -1.96180000      -5.88540000
Pt      -9.80900000      -3.92360000      -5.88540000
Pt      -9.80900000      -1.96180000      -7.84720000
Pt     -11.77080000      -3.92360000      -3.92360000
Pt     -11.77080000      -1.96180000      -1.96180000
Pt      -9.80900000      -3.92360000      -1.96180000
Pt      -9.80900000      -1.96180000      -3.92360000
Pt     -11.77080000      -3.92360000       0.00000000
Pt     -11.77080000      -1.96180000       1.96180000
Pt      -9.80900000      -3.92360000       1.96180000
Pt      -9.80900000      -1.96180000       0.00000000
Pt     -11.77080000      -3.92360000       3.92360000
Pt     -11.77080000      -1.96180000       5.88540000
Pt      -9.80900000      -3.92360000       5.88540000
Pt      -9.80900000      -1.96180000       3.92360000
Pt     -11.77080000      -3.92360000       7.84720000
Pt     -11.77080000      -1.96180000       9.80900000
Pt      -9.80900000      -3.92360000       9.80900000
Pt      -9.80900000      -1.96180000       7.84720000
Pt     -11.77080000      -3.92360000      11.77080000
Pt     -11.77080000      -1.96180000      13.73260000
Pt      -9.80900000      -3.92360000      13.73260000
Pt      -9.80900000      -1.96180000      11.77080000
Pt     -11.77080000      -3.92360000      15.69440000
Pt     -11.77080000      -1.96180000      17.65620000
Pt      -9.80900000      -3.92360000      17.65620000
Pt      -9.80900000      -1.96180000      15.69440000
Pt     -11.77080000      -3.92360000      19.61800000
Pt     -11.77080000      -1.96180000      21.57980000
Pt      -9.80900000      -3.92360000      21.57980000
Pt      -9.80900000      -1.96180000      19.61800000
Pt      -9.80900000      -1.96180000      23.54160000
Pt     -11.77080000       1.96180000     -21.57980000
Pt      -9.80900000       0.00000000     -21.57980000
Pt      -9.80900000       1.96180000     -23.54160000
Pt     -11.77080000       0.00000000     -19.61800000
Pt     -11.77080000       1.96180000     -17.65620000
Pt      -9.80900000       0.00000000     -17.65620000
Pt      -9.80900000       1.96180000     -19.61800000
Pt     -11.77080000       0.00000000     -15.69440000
Pt     -11.77080000       1.96180000     -13.73260000
Pt      -9.80900000       0.00000000     -13.73260000
Pt      -9.80900000       1.96180000     -15.69440000
Pt     -11.77080000       0.00000000     -11.77080000
Pt     -11.77080000       1.96180000      -9.80900000
Pt      -9.80900000       0.00000000      -9.80900000
Pt      -9.80900000       1.96180000     -11.77080000
Pt     -11.77080000       0.00000000      -7.84720000
Pt     -11.77080000       1.96180000      -5.88540000
Pt      -9.80900000       0.00000000      -5.88540000
Pt      -9.80900000       1.96180000      -7.84720000
Pt     -11.77080000       0.00000000      -3.92360000
Pt     -11.77080000       1.96180000      -1.96180000
Pt      -9.80900000       0.00000000      -1.96180000
Pt      -9.80900000       1.96180000      -3.92360000
Pt     -11.77080000       0.00000000       0.00000000
Pt     -11.77080000       1.96180000       1.96180000
Pt      -9.80900000       0.00000000       1.96180000
Pt      -9.80900000       1.96180000       0.00000000
Pt     -11.77080000       0.00000000       3.92360000
Pt     -11.77080000       1.96180000       5.88540000
Pt      -9.80900000       0.00000000       5.88540000
Pt      -9.80900000       1.96180000       3.92360000
Pt     -11.77080000       0.00000000       7.84720000
Pt     -11.77080000       1.96180000       9.80900000
Pt      -9.80900000       0.00000000       9.80900000
Pt      -9.80900000       1.96180000       7.84720000
Pt     -11.77080000       0.00000000      11.77080000
Pt     -11.77080000       1.96180000      13.73260000
Pt      -9.80900000       0.00000000      13.73260000
Pt      -9.80900000       1.96180000      11.77080000
Pt     -11.77080000       0.00000000      15.69440000
Pt     -11.77080000       1.96180000      17.65620000
Pt      -9.80900000       0.00000000      17.65620000
Pt      -9.80900000       1.96180000      15.69440000
Pt     -11.77080000       0.00000000      19.61800000
Pt     -11.77080000       1.96180000      21.57980000
Pt      -9.80900000       0.00000000      21.57980000
Pt      -9.80900000       1.96180000      19.61800000
Pt      -9.80900000       1.96180000      23.54160000
Pt      -9.80900000       3.92360000     -21.57980000
Pt     -11.77080000       3.92360000     -19.61800000
Pt     -11.77080000       5.88540000     -17.65620000
Pt      -9.80900000       3.92360000     -17.65620000
Pt      -9.80900000       5.88540000     -19.61800000
Pt     -11.77080000       3.92360000     -15.69440000
Pt     -11.77080000       5.88540000     -13.73260000
Pt      -9.80900000       3.92360000     -13.73260000
Pt      -9.80900000       5.88540000     -15.69440000
Pt     -11.77080000       3.92360000     -11.77080000
Pt     -11.77080000       5.88540000      -9.80900000
Pt      -9.80900000       3.92360000      -9.80900000
Pt      -9.80900000       5.88540000     -11.77080000
Pt     -11.77080000       3.92360000      -7.84720000
Pt     -11.77080000       5.88540000      -5.88540000
Pt      -9.80900000       3.92360000      -5.88540000
Pt      -9.80900000       5.88540000      -7.84720000
Pt     -11.77080000       3.92360000      -3.92360000
Pt     -11.77080000       5.88540000      -1.96180000
Pt      -9.80900000       3.92360000      -1.96180000
Pt      -9.80900000       5.88540000      -3.92360000
Pt     -11.77080000       3.92360000       0.00000000
Pt     -11.77080000       5.88540000       1.96180000
Pt      -9.80900000       3.92360000       1.96180000
Pt      -9.80900000       5.88540000       0.00000000
Pt     -11.77080000       3.92360000       3.92360000
Pt     -11.77080000       5.88540000       5.88540000
Pt      -9.80900000       3.92360000       5.88540000
Pt      -9.80900000       5.88540000       3.92360000
Pt     -11.77080000       3.92360000       7.84720000
Pt     -11.77080000       5.88540000       9.80900000
Pt      -9.80900000       3.92360000       9.80900000
Pt      -9.80900000       5.88540000       7.84720000
Pt     -11.77080000       3.92360000      11.77080000
Pt     -11.77080000       5.88540000      13.73260000
Pt      -9.80900000       3.92360000      13.73260000
Pt      -9.80900000       5.88540000      11.77080000
Pt     -11.77080000       3.92360000      15.69440000
Pt     -11.77080000       5.88540000      17.65620000
Pt      -9.80900000       3.92360000      17.65620000
Pt      -9.80900000       5.88540000      15.69440000
Pt     -11.77080000       3.92360000      19.61800000
Pt      -9.80900000       3.92360000      21.57980000
Pt      -9.80900000       5.88540000      19.61800000
Pt      -9.80900000       7.84720000     -17.65620000
Pt     -11.77080000       7.84720000     -15.69440000
Pt     -11.77080000       9.80900000     -13.73260000
Pt      -9.80900000       7.84720000     -13.73260000
Pt      -9.80900000       9.80900000     -15.69440000
Pt     -11.77080000       7.84720000     -11.77080000
Pt     -11.77080000       9.80900000      -9.80900000
Pt      -9.80900000       7.84720000      -9.80900000
Pt      -9.80900000       9.80900000     -11.77080000
Pt     -11.77080000       7.84720000      -7.84720000
Pt     -11.77080000       9.80900000      -5.88540000
Pt      -9.80900000       7.84720000      -5.88540000
Pt      -9.80900000       9.80900000      -7.84720000
Pt     -11.77080000       7.84720000      -3.92360000
Pt     -11.77080000       9.80900000      -1.96180000
Pt      -9.80900000       7.84720000      -1.96180000
Pt      -9.80900000       9.80900000      -3.92360000
Pt     -11.77080000       7.84720000       0.00000000
Pt     -11.77080000       9.80900000       1.96180000
Pt      -9.80900000       7.84720000       1.96180000
Pt      -9.80900000       9.80900000       0.00000000
Pt     -11.77080000       7.84720000       3.92360000
Pt     -11.77080000       9.80900000       5.88540000
Pt      -9.80900000       7.84720000       5.88540000
Pt      -9.80900000       9.80900000       3.92360000
Pt     -11.77080000       7.84720000       7.84720000
Pt     -11.77080000       9.80900000       9.80900000
Pt      -9.80900000       7.84720000       9.80900000
Pt      -9.80900000       9.80900000       7.84720000
Pt     -11.77080000       7.84720000      11.77080000
Pt     -11.77080000       9.80900000      13.73260000
Pt      -9.80900000       7.84720000      13.73260000
Pt      -9.80900000       9.80900000      11.77080000
Pt     -11.77080000       7.84720000      15.69440000
Pt      -9.80900000       7.84720000      17.65620000
Pt      -9.80900000       9.80900000      15.69440000
Pt      -9.80900000      11.77080000     -13.73260000
Pt     -11.77080000      11.77080000     -11.77080000
Pt     -11.77080000      13.73260000      -9.80900000
Pt      -9.80900000      11.77080000      -9.80900000
Pt      -9.80900000      13.73260000     -11.77080000
Pt     -11.77080000      11.77080000      -7.84720000
Pt     -11.77080000      13.73260000      -5.88540000
Pt      -9.80900000      11.77080000      -5.88540000
Pt      -9.80900000      13.73260000      -7.84720000
Pt     -11.77080000      11.77080000      -3.92360000
Pt     -11.77080000      13.73260000      -1.96180000
Pt      -9.80900000      11.77080000      -1.96180000
Pt      -9.80900000      13.73260000      -3.92360000
Pt     -11.77080000      11.77080000       0.00000000
Pt     -11.77080000      13.73260000       1.96180000
Pt      -9.80900000      11.77080000       1.96180000
Pt      -9.80900000      13.73260000       0.00000000
Pt     -11.77080000      11.77080000       3.92360000
Pt     -11.77080000      13.73260000       5.88540000
Pt      -9.80900000      11.77080000       5.88540000
Pt      -9.80900000      13.73260000       3.92360000
Pt     -11.77080000      11.77080000       7.84720000
Pt     -11.77080000      13.73260000       9.80900000
Pt      -9.80900000      11.77080000       9.80900000
Pt      -9.80900000      13.73260000       7.84720000
Pt     -11.77080000      11.77080000      11.77080000
Pt      -9.80900000      11.77080000      13.73260000
Pt      -9.80900000      13.73260000      11.77080000
Pt      -9.80900000      15.69440000      -9.80900000
Pt     -11.77080000      15.69440000      -7.84720000
Pt     -11.77080000      17.65620000      -5.88540000
Pt      -9.80900000      15.69440000      -5.88540000
Pt      -9.80900000      17.65620000      -7.84720000
Pt     -11.77080000      15.69440000      -3.92360000
Pt     -11.77080000      17.65620000      -1.96180000
Pt      -9.80900000      15.69440000      -1.96180000
Pt      -9.80900000      17.65620000      -3.92360000
Pt     -11.77080000      15.69440000       0.00000000
Pt     -11.77080000      17.65620000       1.96180000
Pt      -9.80900000      15.69440000       1.96180000
Pt      -9.80900000      17.65620000       0.00000000
Pt     -11.77080000      15.69440000       3.92360000
Pt     -11.77080000      17.65620000       5.88540000
Pt      -9.80900000      15.69440000       5.88540000
Pt      -9.80900000      17.65620000       3.92360000
Pt     -11.77080000      15.69440000       7.84720000
Pt      -9.80900000      15.69440000       9.80900000
Pt      -9.80900000      17.65620000       7.84720000
Pt      -9.80900000      19.61800000      -5.88540000
Pt     -11.77080000      19.61800000      -3.92360000
Pt     -11.77080000      21.57980000      -1.96180000
Pt      -9.80900000      19.61800000      -1.96180000
Pt      -9.80900000      21.57980000      -3.92360000
Pt     -11.77080000      19.61800000       0.00000000
Pt     -11.77080000      21.57980000       1.96180000
Pt      -9.80900000      19.61800000       1.96180000
Pt      -9.80900000      21.57980000       0.00000000
Pt     -11.77080000      19.61800000       3.92360000
Pt      -9.80900000      19.61800000       5.88540000
Pt      -9.80900000      21.57980000       3.92360000
Pt      -9.80900000      23.54160000      -1.96180000
Pt      -9.80900000      23.54160000       1.96180000
Pt      -5.88540000     -25.50340000       0.00000000
Pt      -7.84720000     -21.57980000      -5.88540000
Pt      -5.88540000     -23.54160000      -5.88540000
Pt      -5.88540000     -21.57980000      -7.84720000
Pt      -7.84720000     -23.54160000      -3.92360000
Pt      -7.84720000     -21.57980000      -1.96180000
Pt      -5.88540000     -23.54160000      -1.96180000
Pt      -5.88540000     -21.57980000      -3.92360000
Pt      -7.84720000     -23.54160000       0.00000000
Pt      -7.84720000     -21.57980000       1.96180000
Pt      -5.88540000     -23.54160000       1.96180000
Pt      -5.88540000     -21.57980000       0.00000000
Pt      -7.84720000     -23.54160000       3.92360000
Pt      -7.84720000     -21.57980000       5.88540000
Pt      -5.88540000     -23.54160000       5.88540000
Pt      -5.88540000     -21.57980000       3.92360000
Pt      -5.88540000     -21.57980000       7.84720000
Pt      -7.84720000     -17.65620000      -9.80900000
Pt      -5.88540000     -19.61800000      -9.80900000
Pt      -5.88540000     -17.65620000     -11.77080000
Pt      -7.84720000     -19.61800000      -7.84720000
Pt      -7.84720000     -17.65620000      -5.88540000
Pt      -5.88540000     -19.61800000      -5.88540000
Pt      -5.88540000     -17.65620000      -7.84720000
Pt      -7.84720000     -19.61800000      -3.92360000
Pt      -7.84720000     -17.65620000      -1.96180000
Pt      -5.88540000     -19.61800000      -1.96180000
Pt      -5.88540000     -17.65620000      -3.92360000
Pt      -7.84720000     -19.61800000       0.00000000
Pt      -7.84720000     -17.65620000       1.96180000
Pt      -5.88540000     -19.61800000       1.96180000
Pt      -5.88540000     -17.65620000       0.00000000
Pt      -7.84720000     -19.61800000       3.92360000
Pt      -7.84720000     -17.65620000       5.88540000
Pt      -5.88540000     -19.61800000       5.88540000
Pt      -5.88540000     -17.65620000       3.92360000
Pt      -7.84720000     -19.61800000       7.84720000
Pt      -7.84720000     -17.65620000       9.80900000
Pt      -5.88540000     -19.61800000       9.80900000
Pt      -5.88540000     -17.65620000       7.84720000
Pt      -5.88540000     -17.65620000      11.77080000
Pt      -7.84720000     -13.73260000     -13.73260000
Pt      -5.88540000     -15.69440000     -13.73260000
Pt      -5.88540000     -13.73260000     -15.69440000
Pt      -7.84720000     -15.69440000     -11.77080000
Pt      -7.84720000     -13.73260000      -9.80900000
Pt      -5.88540000     -15.69440000      -9.80900000
Pt      -5.88540000     -13.73260000     -11.77080000
Pt      -7.84720000     -15.69440000      -7.84720000
Pt      -7.84720000     -13.73260000      -5.88540000
Pt      -5.88540000     -15.69440000      -5.88540000
Pt      -5.88540000     -13.73260000      -7.84720000
Pt      -7.84720000     -15.69440000      -3.92360000
Pt      -7.84720000     -13.73260000      -1.96180000
Pt      -5.88540000     -15.69440000      -1.96180000
Pt      -5.88540000     -13.73260000      -3.92360000
Pt      -7.84720000     -15.69440000       0.00000000
Pt      -7.84720000     -13.73260000       1.96180000
Pt      -5.88540000     -15.69440000       1.96180000
Pt      -5.88540000     -13.73260000       0.00000000
Pt      -7.84720000     -15.69440000       3.92360000
Pt      -7.84720000     -13.73260000       5.88540000
Pt      -5.88540000     -15.69440000       5.88540000
Pt      -5.88540000     -13.73260000       3.92360000
Pt      -7.84720000     -15.69440000       7.84720000
Pt      -7.84720000     -13.73260000       9.80900000
Pt      -5.88540000     -15.69440000       9.80900000
Pt      -5.88540000     -13.73260000       7.84720000
Pt      -7.84720000     -15.69440000      11.77080000
Pt      -7.84720000     -13.73260000      13.73260000
Pt      -5.88540000     -15.69440000      13.73260000
Pt      -5.88540000     -13.73260000      11.77080000
Pt      -5.88540000     -13.73260000      15.69440000
Pt      -7.84720000      -9.80900000     -17.65620000
Pt      -5.88540000     -11.77080000     -17.65620000
Pt      -5.88540000      -9.80900000     -19.61800000
Pt      -7.84720000     -11.77080000     -15.69440000
Pt      -7.84720000      -9.80900000     -13.73260000
Pt      -5.88540000     -11.77080000     -13.73260000
Pt      -5.88540000      -9.80900000     -15.69440000
Pt      -7.84720000     -11.77080000     -11.77080000
Pt      -7.84720000      -9.80900000      -9.80900000
Pt      -5.88540000     -11.77080000      -9.80900000
Pt      -5.88540000      -9.80900000     -11.77080000
Pt      -7.84720000     -11.77080000      -7.84720000
Pt      -7.84720000      -9.80900000      -5.88540000
Pt      -5.88540000     -11.77080000      -5.88540000
Pt      -5.88540000      -9.80900000      -7.84720000
Pt      -7.84720000     -11.77080000      -3.92360000
Pt      -7.84720000      -9.80900000      -1.96180000
Pt      -5.88540000     -11.77080000      -1.96180000
Pt      -5.88540000      -9.80900000      -3.92360000
Pt      -7.84720000     -11.77080000       0.00000000
Pt      -7.84720000      -9.80900000       1.96180000
Pt      -5.88540000     -11.77080000       1.96180000
Pt      -5.88540000      -9.80900000       0.00000000
Pt      -7.84720000     -11.77080000       3.92360000
Pt      -7.84720000      -9.80900000       5.88540000
Pt      -5.88540000     -11.77080000       5.88540000
Pt      -5.88540000      -9.80900000       3.92360000
Pt      -7.84720000     -11.77080000       7.84720000
Pt      -7.84720000      -9.80900000       9.80900000
Pt      -5.88540000     -11.77080000       9.80900000
Pt      -5.88540000      -9.80900000       7.84720000
Pt      -7.84720000     -11.77080000      11.77080000
Pt      -7.84720000      -9.80900000      13.73260000
Pt      -5.88540000     -11.77080000      13.73260000
Pt      -5.88540000      -9.80900000      11.77080000
Pt      -7.84720000     -11.77080000      15.69440000
Pt      -7.84720000      -9.80900000      17.65620000
Pt      -5.88540000     -11.77080000      17.65620000
Pt      -5.88540000      -9.80900000      15.69440000
Pt      -5.88540000      -9.80900000      19.61800000
Pt      -7.84720000      -5.88540000     -21.57980000
Pt      -5.88540000      -7.84720000     -21.57980000
Pt      -5.88540000      -5.88540000     -23.54160000
Pt      -7.84720000      -7.84720000     -19.61800000
Pt      -7.84720000      -5.88540000     -17.65620000
Pt      -5.88540000      -7.84720000     -17.65620000
Pt      -5.88540000      -5.88540000     -19.61800000
Pt      -7.84720000      -7.84720000     -15.69440000
Pt      -7.84720000      -5.88540000     -13.73260000
Pt      -5.88540000      -7.84720000     -13.73260000
Pt      -5.88540000      -5.88540000     -15.69440000
Pt      -7.84720000      -7.84720000     -11.77080000
Pt      -7.84720000      -5.88540000      -9.80900000
Pt      -5.88540000      -7.84720000      -9.80900000
Pt      -5.88540000      -5.88540000     -11.77080000
Pt      -7.84720000      -7.84720000      -7.84720000
Pt      -7.84720000      -5.88540000      -5.88540000
Pt      -5.88540000      -7.84720000      -5.88540000
Pt      -5.88540000      -5.88540000      -7.84720000
Pt      -7.84720000      -7.84720000      -3.92360000
Pt      -7.84720000      -5.88540000      -1.96180000
Pt      -5.88540000      -7.84720000      -1.96180000
Pt      -5.88540000      -5.88540000      -3.92360000
Pt      -7.84720000      -7.84720000       0.00000000
Pt      -7.84720000      -5.88540000       1.96180000
Pt      -5.88540000      -7.84720000       1.96180000
Pt      -5.88540000      -5.88540000       0.00000000
Pt      -7.84720000      -7.84720000       3.92360000
Pt      -7.84720000      -5.88540000       5.88540000
Pt      -5.88540000      -7.84720000       5.88540000
Pt      -5.88540000      -5.88540000       3.92360000
Pt      -7.84720000      -7.84720000       7.84720000
Pt      -7.84720000      -5.88540000       9.80900000
Pt      -5.88540000      -7.84720000       9.80900000
Pt      -5.88540000      -5.88540000       7.84720000
Pt      -7.84720000      -7.84720000      11.77080000
Pt      -7.84720000      -5.88540000      13.73260000
Pt      -5.88540000      -7.84720000      13.73260000
Pt      -5.88540000      -5.88540000      11.77080000
Pt      -7.84720000      -7.84720000      15.69440000
Pt      -7.84720000      -5.88540000      17.65620000
Pt      -5.88540000      -7.84720000      17.65620000
Pt      -5.88540000      -5.88540000      15.69440000
Pt      -7.84720000      -7.84720000      19.61800000
Pt      -7.84720000      -5.88540000      21.57980000
Pt      -5.88540000      -7.84720000      21.57980000
Pt      -5.88540000      -5.88540000      19.61800000
Pt      -5.88540000      -5.88540000      23.54160000
Pt      -7.84720000      -3.92360000     -23.54160000
Pt      -7.84720000      -1.96180000     -21.57980000
Pt      -5.88540000      -3.92360000     -21.57980000
Pt      -5.88540000      -1.96180000     -23.54160000
Pt      -7.84720000      -3.92360000     -19.61800000
Pt      -7.84720000      -1.96180000     -17.65620000
Pt      -5.88540000      -3.92360000     -17.65620000
Pt      -5.88540000      -1.96180000     -19.61800000
Pt      -7.84720000      -3.92360000     -15.69440000
Pt      -7.84720000      -1.96180000     -13.73260000
Pt      -5.88540000      -3.92360000     -13.73260000
Pt      -5.88540000      -1.96180000     -15.69440000
Pt      -7.84720000      -3.92360000     -11.77080000
Pt      -7.84720000      -1.96180000      -9.80900000
Pt      -5.88540000      -3.92360000      -9.80900000
Pt      -5.88540000      -1.96180000     -11.77080000
Pt      -7.84720000      -3.92360000      -7.84720000
Pt      -7.84720000      -1.96180000      -5.88540000
Pt      -5.88540000      -3.92360000      -5.88540000
Pt      -5.88540000      -1.96180000      -7.84720000
Pt      -7.84720000      -3.92360000      -3.92360000
Pt      -7.84720000      -1.96180000      -1.96180000
Pt      -5.88540000      -3.92360000      -1.96180000
Pt      -5.88540000      -1.96180000      -3.92360000
Pt      -7.84720000      -3.92360000       0.00000000
Pt      -7.84720000      -1.96180000       1.96180000
Pt      -5.88540000      -3.92360000       1.96180000
Pt      -5.88540000      -1.96180000       0.00000000
Pt      -7.84720000      -3.92360000       3.92360000
Pt      -7.84720000      -1.96180000       5.88540000
Pt      -5.88540000      -3.92360000       5.88540000
Pt      -5.88540000      -1.96180000       3.92360000
Pt      -7.84720000      -3.92360000       7.84720000
Pt      -7.84720000      -1.96180000       9.80900000
Pt      -5.88540000      -3.92360000       9.80900000
Pt      -5.88540000      -1.96180000       7.84720000
Pt      -7.84720000      -3.92360000      11.77080000
Pt      -7.84720000      -1.96180000      13.73260000
Pt      -5.88540000      -3.92360000      13.73260000
Pt      -5.88540000      -1.96180000      11.77080000
Pt      -7.84720000      -3.92360000      15.69440000
Pt      -7.84720000      -1.96180000      17.65620000
Pt      -5.88540000      -3.92360000      17.65620000
Pt      -5.88540000      -1.96180000      15.69440000
Pt      -7.84720000      -3.92360000      19.61800000
Pt      -7.84720000      -1.96180000      21.57980000
Pt      -5.88540000      -3.92360000      21.57980000
Pt      -5.88540000      -1.96180000      19.61800000
Pt      -7.84720000      -3.92360000      23.54160000
Pt      -5.88540000      -1.96180000      23.54160000
Pt      -5.88540000       0.00000000     -25.50340000
Pt      -7.84720000       0.00000000     -23.54160000
Pt      -7.84720000       1.96180000     -21.57980000
Pt      -5.88540000       0.00000000     -21.57980000
Pt      -5.88540000       1.96180000     -23.54160000
Pt      -7.84720000       0.00000000     -19.61800000
Pt      -7.84720000       1.96180000     -17.65620000
Pt      -5.88540000       0.00000000     -17.65620000
Pt      -5.88540000       1.96180000     -19.61800000
Pt      -7.84720000       0.00000000     -15.69440000
Pt      -7.84720000       1.96180000     -13.73260000
Pt      -5.88540000       0.00000000     -13.73260000
Pt      -5.88540000       1.96180000     -15.69440000
Pt      -7.84720000       0.00000000     -11.77080000
Pt      -7.84720000       1.96180000      -9.80900000
Pt      -5.88540000       0.00000000      -9.80900000
Pt      -5.88540000       1.96180000     -11.77080000
Pt      -7.84720000       0.00000000      -7.84720000
Pt      -7.84720000       1.96180000      -5.88540000
Pt      -5.88540000       0.00000000      -5.88540000
Pt      -5.88540000       1.96180000      -7.84720000
Pt      -7.84720000       0.00000000      -3.92360000
Pt      -7.84720000       1.96180000      -1.96180000
Pt      -5.88540000       0.00000000      -1.96180000
Pt      -5.88540000       1.96180000      -3.92360000
Pt      -7.84720000       0.00000000       0.00000000
Pt      -7.84720000       1.96180000       1.96180000
Pt      -5.88540000       0.00000000       1.96180000
Pt      -5.88540000       1.96180000       0.00000000
Pt      -7.84720000       0.00000000       3.92360000
Pt      -7.84720000       1.96180000       5.88540000
Pt      -5.88540000       0.00000000       5.88540000
Pt      -5.88540000       1.96180000       3.92360000
Pt      -7.84720000       0.00000000       7.84720000
Pt      -7.84720000       1.96180000       9.80900000
Pt      -5.88540000       0.00000000       9.80900000
Pt      -5.88540000       1.96180000       7.84720000
Pt      -7.84720000       0.00000000      11.77080000
Pt      -7.84720000       1.96180000      13.73260000
Pt      -5.88540000       0.00000000      13.73260000
Pt      -5.88540000       1.96180000      11.77080000
Pt      -7.84720000       0.00000000      15.69440000
Pt      -7.84720000       1.96180000      17.65620000
Pt      -5.88540000       0.00000000      17.65620000
Pt      -5.88540000       1.96180000      15.69440000
Pt      -7.84720000       0.00000000      19.61800000
Pt      -7.84720000       1.96180000      21.57980000
Pt      -5.88540000       0.00000000      21.57980000
Pt      -5.88540000       1.96180000      19.61800000
Pt      -7.84720000       0.00000000      23.54160000
Pt      -5.88540000       0.00000000      25.50340000
Pt      -5.88540000       1.96180000      23.54160000
Pt      -7.84720000       3.92360000     -23.54160000
Pt      -7.84720000       5.88540000     -21.57980000
Pt      -5.88540000       3.92360000     -21.57980000
Pt      -5.88540000       5.88540000     -23.54160000
Pt      -7.84720000       3.92360000     -19.61800000
Pt      -7.84720000       5.88540000     -17.65620000
Pt      -5.88540000       3.92360000     -17.65620000
Pt      -5.88540000       5.88540000     -19.61800000
Pt      -7.84720000       3.92360000     -15.69440000
Pt      -7.84720000       5.88540000     -13.73260000
Pt      -5.88540000       3.92360000     -13.73260000
Pt      -5.88540000       5.88540000     -15.69440000
Pt      -7.84720000       3.92360000     -11.77080000
Pt      -7.84720000       5.88540000      -9.80900000
Pt      -5.88540000       3.92360000      -9.80900000
Pt      -5.88540000       5.88540000     -11.77080000
Pt      -7.84720000       3.92360000      -7.84720000
Pt      -7.84720000       5.88540000      -5.88540000
Pt      -5.88540000       3.92360000      -5.88540000
Pt      -5.88540000       5.88540000      -7.84720000
Pt      -7.84720000       3.92360000      -3.92360000
Pt      -7.84720000       5.88540000      -1.96180000
Pt      -5.88540000       3.92360000      -1.96180000
Pt      -5.88540000       5.88540000      -3.92360000
Pt      -7.84720000       3.92360000       0.00000000
Pt      -7.84720000       5.88540000       1.96180000
Pt      -5.88540000       3.92360000       1.96180000
Pt      -5.88540000       5.88540000       0.00000000
Pt      -7.84720000       3.92360000       3.92360000
Pt      -7.84720000       5.88540000       5.88540000
Pt      -5.88540000       3.92360000       5.88540000
Pt      -5.88540000       5.88540000       3.92360000
Pt      -7.84720000       3.92360000       7.84720000
Pt      -7.84720000       5.88540000       9.80900000
Pt      -5.88540000       3.92360000       9.80900000
Pt      -5.88540000       5.88540000       7.84720000
Pt      -7.84720000       3.92360000      11.77080000
Pt      -7.84720000       5.88540000      13.73260000
Pt      -5.88540000       3.92360000      13.73260000
Pt      -5.88540000       5.88540000      11.77080000
Pt      -7.84720000       3.92360000      15.69440000
Pt      -7.84720000       5.88540000      17.65620000
Pt      -5.88540000       3.92360000      17.65620000
Pt      -5.88540000       5.88540000      15.69440000
Pt      -7.84720000       3.92360000      19.61800000
Pt      -7.84720000       5.88540000      21.57980000
Pt      -5.88540000       3.92360000      21.57980000
Pt      -5.88540000       5.88540000      19.61800000
Pt      -7.84720000       3.92360000      23.54160000
Pt      -5.88540000       5.88540000      23.54160000
Pt      -5.88540000       7.84720000     -21.57980000
Pt      -7.84720000       7.84720000     -19.61800000
Pt      -7.84720000       9.80900000     -17.65620000
Pt      -5.88540000       7.84720000     -17.65620000
Pt      -5.88540000       9.80900000     -19.61800000
Pt      -7.84720000       7.84720000     -15.69440000
Pt      -7.84720000       9.80900000     -13.73260000
Pt      -5.88540000       7.84720000     -13.73260000
Pt      -5.88540000       9.80900000     -15.69440000
Pt      -7.84720000       7.84720000     -11.77080000
Pt      -7.84720000       9.80900000      -9.80900000
Pt      -5.88540000       7.84720000      -9.80900000
Pt      -5.88540000       9.80900000     -11.77080000
Pt      -7.84720000       7.84720000      -7.84720000
Pt      -7.84720000       9.80900000      -5.88540000
Pt      -5.88540000       7.84720000      -5.88540000
Pt      -5.88540000       9.80900000      -7.84720000
Pt      -7.84720000       7.84720000      -3.92360000
Pt      -7.84720000       9.80900000      -1.96180000
Pt      -5.88540000       7.84720000      -1.96180000
Pt      -5.88540000       9.80900000      -3.92360000
Pt      -7.84720000       7.84720000       0.00000000
Pt      -7.84720000       9.80900000       1.96180000
Pt      -5.88540000       7.84720000       1.96180000
Pt      -5.88540000       9.80900000       0.00000000
Pt      -7.84720000       7.84720000       3.92360000
Pt      -7.84720000       9.80900000       5.88540000
Pt      -5.88540000       7.84720000       5.88540000
Pt      -5.88540000       9.80900000       3.92360000
Pt      -7.84720000       7.84720000       7.84720000
Pt      -7.84720000       9.80900000       9.80900000
Pt      -5.88540000       7.84720000       9.80900000
Pt      -5.88540000       9.80900000       7.84720000
Pt      -7.84720000       7.84720000      11.77080000
Pt      -7.84720000       9.80900000      13.73260000
Pt      -5.88540000       7.84720000      13.73260000
Pt      -5.88540000       9.80900000      11.77080000
Pt      -7.84720000       7.84720000      15.69440000
Pt      -7.84720000       9.80900000      17.65620000
Pt      -5.88540000       7.84720000      17.65620000
Pt      -5.88540000       9.80900000      15.69440000
Pt      -7.84720000       7.84720000      19.61800000
Pt      -5.88540000       7.84720000      21.57980000
Pt      -5.88540000       9.80900000      19.61800000
Pt      -5.88540000      11.77080000     -17.65620000
Pt      -7.84720000      11.77080000     -15.69440000
Pt      -7.84720000      13.73260000     -13.73260000
Pt      -5.88540000      11.77080000     -13.73260000
Pt      -5.88540000      13.73260000     -15.69440000
Pt      -7.84720000      11.77080000     -11.77080000
Pt      -7.84720000      13.73260000      -9.80900000
Pt      -5.88540000      11.77080000      -9.80900000
Pt      -5.88540000      13.73260000     -11.77080000
Pt      -7.84720000      11.77080000      -7.84720000
Pt      -7.84720000      13.73260000      -5.88540000
Pt      -5.88540000      11.77080000      -5.88540000
Pt      -5.88540000      13.73260000      -7.84720000
Pt      -7.84720000      11.77080000      -3.92360000
Pt      -7.84720000      13.73260000      -1.96180000
Pt      -5.88540000      11.77080000      -1.96180000
Pt      -5.88540000      13.73260000      -3.92360000
Pt      -7.84720000      11.77080000       0.00000000
Pt      -7.84720000      13.73260000       1.96180000
Pt      -5.88540000      11.77080000       1.96180000
Pt      -5.88540000      13.73260000       0.00000000
Pt      -7.84720000      11.77080000       3.92360000
Pt      -7.84720000      13.73260000       5.88540000
Pt      -5.88540000      11.77080000       5.88540000
Pt      -5.88540000      13.73260000       3.92360000
Pt      -7.84720000      11.77080000       7.84720000
Pt      -7.84720000      13.73260000       9.80900000
Pt      -5.88540000      11.77080000       9.80900000
Pt      -5.88540000      13.73260000       7.84720000
Pt      -7.84720000      11.77080000      11.77080000
Pt      -7.84720000      13.73260000      13.73260000
Pt      -5.88540000      11.77080000      13.73260000
Pt      -5.88540000      13.73260000      11.77080000
Pt      -7.84720000      11.77080000      15.69440000
Pt      -5.88540000      11.77080000      17.65620000
Pt      -5.88540000      13.73260000      15.69440000
Pt      -5.88540000      15.69440000     -13.73260000
Pt      -7.84720000      15.69440000     -11.77080000
Pt      -7.84720000      17.65620000      -9.80900000
Pt      -5.88540000      15.69440000      -9.80900000
Pt      -5.88540000      17.65620000     -11.77080000
Pt      -7.84720000      15.69440000      -7.84720000
Pt      -7.84720000      17.65620000      -5.88540000
Pt      -5.88540000      15.69440000      -5.88540000
Pt      -5.88540000      17.65620000      -7.84720000
Pt      -7.84720000      15.69440000      -3.92360000
Pt      -7.84720000      17.65620000      -1.96180000
Pt      -5.88540000      15.69440000      -1.96180000
Pt      -5.88540000      17.65620000      -3.92360000
Pt      -7.84720000      15.69440000       0.00000000
Pt      -7.84720000      17.65620000       1.96180000
Pt      -5.88540000      15.69440000       1.96180000
Pt      -5.88540000      17.65620000       0.00000000
Pt      -7.84720000      15.69440000       3.92360000
Pt      -7.84720000      17.65620000       5.88540000
Pt      -5.88540000      15.69440000       5.88540000
Pt      -5.88540000      17.65620000       3.92360000
Pt      -7.84720000      15.69440000       7.84720000
Pt      -7.84720000      17.65620000       9.80900000
Pt      -5.88540000      15.69440000       9.80900000
Pt      -5.88540000      17.65620000       7.84720000
Pt      -7.84720000      15.69440000      11.77080000
Pt      -5.88540000      15.69440000      13.73260000
Pt      -5.88540000      17.65620000      11.77080000
Pt      -5.88540000      19.61800000      -9.80900000
Pt      -7.84720000      19.61800000      -7.84720000
Pt      -7.84720000      21.57980000      -5.88540000
Pt      -5.88540000      19.61800000      -5.88540000
Pt      -5.88540000      21.57980000      -7.84720000
Pt      -7.84720000      19.61800000      -3.92360000
Pt      -7.84720000      21.57980000      -1.96180000
Pt      -5.88540000      19.61800000      -1.96180000
Pt      -5.88540000      21.57980000      -3.92360000
Pt      -7.84720000      19.61800000       0.00000000
Pt      -7.84720000      21.57980000       1.96180000
Pt      -5.88540000      19.61800000       1.96180000
Pt      -5.88540000      21.57980000       0.00000000
Pt      -7.84720000      19.61800000       3.92360000
Pt      -7.84720000      21.57980000       5.88540000
Pt      -5.88540000      19.61800000       5.88540000
Pt      -5.88540000      21.57980000       3.92360000
Pt      -7.84720000      19.61800000       7.84720000
Pt      -5.88540000      19.61800000       9.80900000
Pt      -5.88540000      21.57980000       7.84720000
Pt      -5.88540000      23.54160000      -5.88540000
Pt      -7.84720000      23.54160000      -3.92360000
Pt      -5.88540000      23.54160000      -1.96180000
Pt      -7.84720000      23.54160000       0.00000000
Pt      -5.88540000      23.54160000       1.96180000
Pt      -5.88540000      25.50340000       0.00000000
Pt      -7.84720000      23.54160000       3.92360000
Pt      -5.88540000      23.54160000       5.88540000
Pt      -3.92360000     -25.50340000      -1.96180000
Pt      -1.96180000     -25.50340000      -3.92360000
Pt      -3.92360000     -25.50340000       1.96180000
Pt      -1.96180000     -25.50340000       0.00000000
Pt      -1.96180000     -25.50340000       3.92360000
Pt      -3.92360000     -21.57980000      -9.80900000
Pt      -1.96180000     -23.54160000      -9.80900000
Pt      -1.96180000     -21.57980000     -11.77080000
Pt      -3.92360000     -23.54160000      -7.84720000
Pt      -3.92360000     -21.57980000      -5.88540000
Pt      -1.96180000     -23.54160000      -5.88540000
Pt      -1.96180000     -21.57980000      -7.84720000
Pt      -3.92360000     -23.54160000      -3.92360000
Pt      -3.92360000     -21.57980000      -1.96180000
Pt      -1.96180000     -23.54160000      -1.96180000
Pt      -1.96180000     -21.57980000      -3.92360000
Pt      -3.92360000     -23.54160000       0.00000000
Pt      -3.92360000     -21.57980000       1.96180000
Pt      -1.96180000     -23.54160000       1.96180000
Pt      -1.96180000     -21.57980000       0.00000000
Pt      -3.92360000     -23.54160000       3.92360000
Pt      -3.92360000     -21.57980000       5.88540000
Pt      -1.96180000     -23.54160000       5.88540000
Pt      -1.96180000     -21.57980000       3.92360000
Pt      -3.92360000     -23.54160000       7.84720000
Pt      -3.92360000     -21.57980000       9.80900000
Pt      -1.96180000     -23.54160000       9.80900000
Pt      -1.96180000     -21.57980000       7.84720000
Pt      -1.96180000     -21.57980000      11.77080000
Pt      -3.92360000     -17.65620000     -13.73260000
Pt      -1.96180000     -19.61800000     -13.73260000
Pt      -1.96180000     -17.65620000     -15.69440000
Pt      -3.92360000     -19.61800000     -11.77080000
Pt      -3.92360000     -17.65620000      -9.80900000
Pt      -1.96180000     -19.61800000      -9.80900000
Pt      -1.96180000     -17.65620000     -11.77080000
Pt      -3.92360000     -19.61800000      -7.84720000
Pt      -3.92360000     -17.65620000      -5.88540000
Pt      -1.96180000     -19.61800000      -5.88540000
Pt      -1.96180000     -17.65620000      -7.84720000
Pt      -3.92360000     -19.61800000      -3.92360000
Pt      -3.92360000     -17.65620000      -1.96180000
Pt      -1.96180000     -19.61800000      -1.96180000
Pt      -1.96180000     -17.65620000      -3.92360000
Pt      -3.92360000     -19.61800000       0.00000000
Pt      -3.92360000     -17.65620000       1.96180000
Pt      -1.96180000     -19.61800000       1.96180000
Pt      -1.96180000     -17.65620000       0.00000000
Pt      -3.92360000     -19.61800000       3.92360000
Pt      -3.92360000     -17.65620000       5.88540000
Pt      -1.96180000     -19.61800000       5.88540000
Pt      -1.96180000     -17.65620000       3.92360000
Pt      -3.92360000     -19.61800000       7.84720000
Pt      -3.92360000     -17.65620000       9.80900000
Pt      -1.96180000     -19.61800000       9.80900000
Pt      -1.96180000     -17.65620000       7.84720000
Pt      -3.92360000     -19.61800000      11.77080000
Pt      -3.92360000     -17.65620000      13.73260000
Pt      -1.96180000     -19.61800000      13.73260000
Pt      -1.96180000     -17.65620000      11.77080000
Pt      -1.96180000     -17.65620000      15.69440000
Pt      -3.92360000     -13.73260000     -17.65620000
Pt      -1.96180000     -15.69440000     -17.65620000
Pt      -1.96180000     -13.73260000     -19.61800000
Pt      -3.92360000     -15.69440000     -15.69440000
Pt      -3.92360000     -13.73260000     -13.73260000
Pt      -1.96180000     -15.69440000     -13.73260000
Pt      -1.96180000     -13.73260000     -15.69440000
Pt      -3.92360000     -15.69440000     -11.77080000
Pt      -3.92360000     -13.73260000      -9.80900000
Pt      -1.96180000     -15.69440000      -9.80900000
Pt      -1.96180000     -13.73260000     -11.77080000
Pt      -3.92360000     -15.69440000      -7.84720000
Pt      -3.92360000     -13.73260000      -5.88540000
Pt      -1.96180000     -15.69440000      -5.88540000
Pt      -1.96180000     -13.73260000      -7.84720000
Pt      -3.92360000     -15.69440000      -3.92360000
Pt      -3.92360000     -13.73260000      -1.96180000
Pt      -1.96180000     -15.69440000      -1.96180000
Pt      -1.96180000     -13.73260000      -3.92360000
Pt      -3.92360000     -15.69440000       0.00000000
Pt      -3.92360000     -13.73260000       1.96180000
Pt      -1.96180000     -15.69440000       1.96180000
Pt      -1.96180000     -13.73260000       0.00000000
Pt      -3.92360000     -15.69440000       3.92360000
Pt      -3.92360000     -13.73260000       5.88540000
Pt      -1.96180000     -15.69440000       5.88540000
Pt      -1.96180000     -13.73260000       3.92360000
Pt      -3.92360000     -15.69440000       7.84720000
Pt      -3.92360000     -13.73260000       9.80900000
Pt      -1.96180000     -15.69440000       9.80900000
Pt      -1.96180000     -13.73260000       7.84720000
Pt      -3.92360000     -15.69440000      11.77080000
Pt      -3.92360000     -13.73260000      13.73260000
Pt      -1.96180000     -15.69440000      13.73260000
Pt      -1.96180000     -13.73260000      11.77080000
Pt      -3.92360000     -15.69440000      15.69440000
Pt      -3.92360000     -13.73260000      17.65620000
Pt      -1.96180000     -15.69440000      17.65620000
Pt      -1.96180000     -13.73260000      15.69440000
Pt      -1.96180000     -13.73260000      19.61800000
Pt      -3.92360000      -9.80900000     -21.57980000
Pt      -1.96180000     -11.77080000     -21.57980000
Pt      -1.96180000      -9.80900000     -23.54160000
Pt      -3.92360000     -11.77080000     -19.61800000
Pt      -3.92360000      -9.80900000     -17.65620000
Pt      -1.96180000     -11.77080000     -17.65620000
Pt      -1.96180000      -9.80900000     -19.61800000
Pt      -3.92360000     -11.77080000     -15.69440000
Pt      -3.92360000      -9.80900000     -13.73260000
Pt      -1.96180000     -11.77080000     -13.73260000
Pt      -1.96180000      -9.80900000     -15.69440000
Pt      -3.92360000     -11.77080000     -11.77080000
Pt      -3.92360000      -9.80900000      -9.80900000
Pt      -1.96180000     -11.77080000      -9.80900000
Pt      -1.96180000      -9.80900000     -11.77080000
Pt      -3.92360000     -11.77080000      -7.84720000
Pt      -3.92360000      -9.80900000      -5.88540000
Pt      -1.96180000     -11.77080000      -5.88540000
Pt      -1.96180000      -9.80900000      -7.84720000
Pt      -3.92360000     -11.77080000      -3.92360000
Pt      -3.92360000      -9.80900000      -1.96180000
Pt      -1.96180000     -11.77080000      -1.96180000
Pt      -1.96180000      -9.80900000      -3.92360000
Pt      -3.92360000     -11.77080000       0.00000000
Pt      -3.92360000      -9.80900000       1.96180000
Pt      -1.96180000     -11.77080000       1.96180000
Pt      -1.96180000      -9.80900000       0.00000000
Pt      -3.92360000     -11.77080000       3.92360000
Pt      -3.92360000      -9.80900000       5.88540000
Pt      -1.96180000     -11.77080000       5.88540000
Pt      -1.96180000      -9.80900000       3.92360000
Pt      -3.92360000     -11.77080000       7.84720000
Pt      -3.92360000      -9.80900000       9.80900000
Pt      -1.96180000     -11.77080000       9.80900000
Pt      -1.96180000      -9.80900000       7.84720000
Pt      -3.92360000     -11.77080000      11.77080000
Pt      -3.92360000      -9.80900000      13.73260000
Pt      -1.96180000     -11.77080000      13.73260000
Pt      -1.96180000      -9.80900000      11.77080000
Pt      -3.92360000     -11.77080000      15.69440000
Pt      -3.92360000      -9.80900000      17.65620000
Pt      -1.96180000     -11.77080000      17.65620000
Pt      -1.96180000      -9.80900000      15.69440000
Pt      -3.92360000     -11.77080000      19.61800000
Pt      -3.92360000      -9.80900000      21.57980000
Pt      -1.96180000     -11.77080000      21.57980000
Pt      -1.96180000      -9.80900000      19.61800000
Pt      -1.96180000      -9.80900000      23.54160000
Pt      -3.92360000      -7.84720000     -23.54160000
Pt      -3.92360000      -5.88540000     -21.57980000
Pt      -1.96180000      -7.84720000     -21.57980000
Pt      -1.96180000      -5.88540000     -23.54160000
Pt      -3.92360000      -7.84720000     -19.61800000
Pt      -3.92360000      -5.88540000     -17.65620000
Pt      -1.96180000      -7.84720000     -17.65620000
Pt      -1.96180000      -5.88540000     -19.61800000
Pt      -3.92360000      -7.84720000     -15.69440000
Pt      -3.92360000      -5.88540000     -13.73260000
Pt      -1.96180000      -7.84720000     -13.73260000
Pt      -1.96180000      -5.88540000     -15.69440000
Pt      -3.92360000      -7.84720000     -11.77080000
Pt      -3.92360000      -5.88540000      -9.80900000
Pt      -1.96180000      -7.84720000      -9.80900000
Pt      -1.96180000      -5.88540000     -11.77080000
Pt      -3.92360000      -7.84720000      -7.84720000
Pt      -3.92360000      -5.88540000      -5.88540000
Pt      -1.96180000      -7.84720000      -5.88540000
Pt      -1.96180000      -5.88540000      -7.84720000
Pt      -3.92360000      -7.84720000      -3.92360000
Pt      -3.92360000      -5.88540000      -1.96180000
Pt      -1.96180000      -7.84720000      -1.96180000
Pt      -1.96180000      -5.88540000      -3.92360000
Pt      -3.92360000      -7.84720000       0.00000000
Pt      -3.92360000      -5.88540000       1.96180000
Pt      -1.96180000      -7.84720000       1.96180000
Pt      -1.96180000      -5.88540000       0.00000000
Pt      -3.92360000      -7.84720000       3.92360000
Pt      -3.92360000      -5.88540000       5.88540000
Pt      -1.96180000      -7.84720000       5.88540000
Pt      -1.96180000      -5.88540000       3.92360000
Pt      -3.92360000      -7.84720000       7.84720000
Pt      -3.92360000      -5.88540000       9.80900000
Pt      -1.96180000      -7.84720000       9.80900000
Pt      -1.96180000      -5.88540000       7.84720000
Pt      -3.92360000      -7.84720000      11.77080000
Pt      -3.92360000      -5.88540000      13.73260000
Pt      -1.96180000      -7.84720000      13.73260000
Pt      -1.96180000      -5.88540000      11.77080000
Pt      -3.92360000      -7.84720000      15.69440000
Pt      -3.92360000      -5.88540000      17.65620000
Pt      -1.96180000      -7.84720000      17.65620000
Pt      -1.96180000      -5.88540000      15.69440000
Pt      -3.92360000      -7.84720000      19.61800000
Pt      -3.92360000      -5.88540000      21.57980000
Pt      -1.96180000      -7.84720000      21.57980000
Pt      -1.96180000      -5.88540000      19.61800000
Pt      -3.92360000      -7.84720000      23.54160000
Pt      -1.96180000      -5.88540000      23.54160000
Pt      -3.92360000      -1.96180000     -25.50340000
Pt      -1.96180000      -3.92360000     -25.50340000
Pt      -3.92360000      -3.92360000     -23.54160000
Pt      -3.92360000      -1.96180000     -21.57980000
Pt      -1.96180000      -3.92360000     -21.57980000
Pt      -1.96180000      -1.96180000     -23.54160000
Pt      -3.92360000      -3.92360000     -19.61800000
Pt      -3.92360000      -1.96180000     -17.65620000
Pt      -1.96180000      -3.92360000     -17.65620000
Pt      -1.96180000      -1.96180000     -19.61800000
Pt      -3.92360000      -3.92360000     -15.69440000
Pt      -3.92360000      -1.96180000     -13.73260000
Pt      -1.96180000      -3.92360000     -13.73260000
Pt      -1.96180000      -1.96180000     -15.69440000
Pt      -3.92360000      -3.92360000     -11.77080000
Pt      -3.92360000      -1.96180000      -9.80900000
Pt      -1.96180000      -3.92360000      -9.80900000
Pt      -1.96180000      -1.96180000     -11.77080000
Pt      -3.92360000      -3.92360000      -7.84720000
Pt      -3.92360000      -1.96180000      -5.88540000
Pt      -1.96180000      -3.92360000      -5.88540000
Pt      -1.96180000      -1.96180000      -7.84720000
Pt      -3.92360000      -3.92360000      -3.92360000
Pt      -3.92360000      -1.96180000      -1.96180000
Pt      -1.96180000      -3.92360000      -1.96180000
Pt      -1.96180000      -1.96180000      -3.92360000
Pt      -3.92360000      -3.92360000       0.00000000
Pt      -3.92360000      -1.96180000       1.96180000
Pt      -1.96180000      -3.92360000       1.96180000
Pt      -1.96180000      -1.96180000       0.00000000
Pt      -3.92360000      -3.92360000       3.92360000
Pt      -3.92360000      -1.96180000       5.88540000
Pt      -1.96180000      -3.92360000       5.88540000
Pt      -1.96180000      -1.96180000       3.92360000
Pt      -3.92360000      -3.92360000       7.84720000
Pt      -3.92360000      -1.96180000       9.80900000
Pt      -1.96180000      -3.92360000       9.80900000
Pt      -1.96180000      -1.96180000       7.84720000
Pt      -3.92360000      -3.92360000      11.77080000
Pt      -3.92360000      -1.96180000      13.73260000
Pt      -1.96180000      -3.92360000      13.73260000
Pt      -1.96180000      -1.96180000      11.77080000
Pt      -3.92360000      -3.92360000      15.69440000
Pt      -3.92360000      -1.96180000      17.65620000
Pt      -1.96180000      -3.92360000      17.65620000
Pt      -1.96180000      -1.96180000      15.69440000
Pt      -3.92360000      -3.92360000      19.61800000
Pt      -3.92360000      -1.96180000      21.57980000
Pt      -1.96180000      -3.92360000      21.57980000
Pt      -1.96180000      -1.96180000      19.61800000
Pt      -3.92360000      -3.92360000      23.54160000
Pt      -3.92360000      -1.96180000      25.50340000
Pt      -1.96180000      -3.92360000      25.50340000
Pt      -1.96180000      -1.96180000      23.54160000
Pt      -3.92360000       1.96180000     -25.50340000
Pt      -1.96180000       0.00000000     -25.50340000
Pt      -3.92360000       0.00000000     -23.54160000
Pt      -3.92360000       1.96180000     -21.57980000
Pt      -1.96180000       0.00000000     -21.57980000
Pt      -1.96180000       1.96180000     -23.54160000
Pt      -3.92360000       0.00000000     -19.61800000
Pt      -3.92360000       1.96180000     -17.65620000
Pt      -1.96180000       0.00000000     -17.65620000
Pt      -1.96180000       1.96180000     -19.61800000
Pt      -3.92360000       0.00000000     -15.69440000
Pt      -3.92360000       1.96180000     -13.73260000
Pt      -1.96180000       0.00000000     -13.73260000
Pt      -1.96180000       1.96180000     -15.69440000
Pt      -3.92360000       0.00000000     -11.77080000
Pt      -3.92360000       1.96180000      -9.80900000
Pt      -1.96180000       0.00000000      -9.80900000
Pt      -1.96180000       1.96180000     -11.77080000
Pt      -3.92360000       0.00000000      -7.84720000
Pt      -3.92360000       1.96180000      -5.88540000
Pt      -1.96180000       0.00000000      -5.88540000
Pt      -1.96180000       1.96180000      -7.84720000
Pt      -3.92360000       0.00000000      -3.92360000
Pt      -3.92360000       1.96180000      -1.96180000
Pt      -1.96180000       0.00000000      -1.96180000
Pt      -1.96180000       1.96180000      -3.92360000
Pt      -3.92360000       0.00000000       0.00000000
Pt      -3.92360000       1.96180000       1.96180000
Pt      -1.96180000       0.00000000       1.96180000
Pt      -1.96180000       1.96180000       0.00000000
Pt      -3.92360000       0.00000000       3.92360000
Pt      -3.92360000       1.96180000       5.88540000
Pt      -1.96180000       0.00000000       5.88540000
Pt      -1.96180000       1.96180000       3.92360000
Pt      -3.92360000       0.00000000       7.84720000
Pt      -3.92360000       1.96180000       9.80900000
Pt      -1.96180000       0.00000000       9.80900000
Pt      -1.96180000       1.96180000       7.84720000
Pt      -3.92360000       0.00000000      11.77080000
Pt      -3.92360000       1.96180000      13.73260000
Pt      -1.96180000       0.00000000      13.73260000
Pt      -1.96180000       1.96180000      11.77080000
Pt      -3.92360000       0.00000000      15.69440000
Pt      -3.92360000       1.96180000      17.65620000
Pt      -1.96180000       0.00000000      17.65620000
Pt      -1.96180000       1.96180000      15.69440000
Pt      -3.92360000       0.00000000      19.61800000
Pt      -3.92360000       1.96180000      21.57980000
Pt      -1.96180000       0.00000000      21.57980000
Pt      -1.96180000       1.96180000      19.61800000
Pt      -3.92360000       0.00000000      23.54160000
Pt      -3.92360000       1.96180000      25.50340000
Pt      -1.96180000       0.00000000      25.50340000
Pt      -1.96180000       1.96180000      23.54160000
Pt      -1.96180000       3.92360000     -25.50340000
Pt      -3.92360000       3.92360000     -23.54160000
Pt      -3.92360000       5.88540000     -21.57980000
Pt      -1.96180000       3.92360000     -21.57980000
Pt      -1.96180000       5.88540000     -23.54160000
Pt      -3.92360000       3.92360000     -19.61800000
Pt      -3.92360000       5.88540000     -17.65620000
Pt      -1.96180000       3.92360000     -17.65620000
Pt      -1.96180000       5.88540000     -19.61800000
Pt      -3.92360000       3.92360000     -15.69440000
Pt      -3.92360000       5.88540000     -13.73260000
Pt      -1.96180000       3.92360000     -13.73260000
Pt      -1.96180000       5.88540000     -15.69440000
Pt      -3.92360000       3.92360000     -11.77080000
Pt      -3.92360000       5.88540000      -9.80900000
Pt      -1.96180000       3.92360000      -9.80900000
Pt      -1.96180000       5.88540000     -11.77080000
Pt      -3.92360000       3.92360000      -7.84720000
Pt      -3.92360000       5.88540000      -5.88540000
Pt      -1.96180000       3.92360000      -5.88540000
Pt      -1.96180000       5.88540000      -7.84720000
Pt      -3.92360000       3.92360000      -3.92360000
Pt      -3.92360000       5.88540000      -1.96180000
Pt      -1.96180000       3.92360000      -1.96180000
Pt      -1.96180000       5.88540000      -3.92360000
Pt      -3.92360000       3.92360000       0.00000000
Pt      -3.92360000       5.88540000       1.96180000
Pt      -1.96180000       3.92360000       1.96180000
Pt      -1.96180000       5.88540000       0.00000000
Pt      -3.92360000       3.92360000       3.92360000
Pt      -3.92360000       5.88540000       5.88540000
Pt      -1.96180000       3.92360000       5.88540000
Pt      -1.96180000       5.88540000       3.92360000
Pt      -3.92360000       3.92360000       7.84720000
Pt      -3.92360000       5.88540000       9.80900000
Pt      -1.96180000       3.92360000       9.80900000
Pt      -1.96180000       5.88540000       7.84720000
Pt      -3.92360000       3.92360000      11.77080000
Pt      -3.92360000       5.88540000      13.73260000
Pt      -1.96180000       3.92360000      13.73260000
Pt      -1.96180000       5.88540000      11.77080000
Pt      -3.92360000       3.92360000      15.69440000
Pt      -3.92360000       5.88540000      17.65620000
Pt      -1.96180000       3.92360000      17.65620000
Pt      -1.96180000       5.88540000      15.69440000
Pt      -3.92360000       3.92360000      19.61800000
Pt      -3.92360000       5.88540000      21.57980000
Pt      -1.96180000       3.92360000      21.57980000
Pt      -1.96180000       5.88540000      19.61800000
Pt      -3.92360000       3.92360000      23.54160000
Pt      -1.96180000       3.92360000      25.50340000
Pt      -1.96180000       5.88540000      23.54160000
Pt      -3.92360000       7.84720000     -23.54160000
Pt      -3.92360000       9.80900000     -21.57980000
Pt      -1.96180000       7.84720000     -21.57980000
Pt      -1.96180000       9.80900000     -23.54160000
Pt      -3.92360000       7.84720000     -19.61800000
Pt      -3.92360000       9.80900000     -17.65620000
Pt      -1.96180000       7.84720000     -17.65620000
Pt      -1.96180000       9.80900000     -19.61800000
Pt      -3.92360000       7.84720000     -15.69440000
Pt      -3.92360000       9.80900000     -13.73260000
Pt      -1.96180000       7.84720000     -13.73260000
Pt      -1.96180000       9.80900000     -15.69440000
Pt      -3.92360000       7.84720000     -11.77080000
Pt      -3.92360000       9.80900000      -9.80900000
Pt      -1.96180000       7.84720000      -9.80900000
Pt      -1.96180000       9.80900000     -11.77080000
Pt      -3.92360000       7.84720000      -7.84720000
Pt      -3.92360000       9.80900000      -5.88540000
Pt      -1.96180000       7.84720000      -5.88540000
Pt      -1.96180000       9.80900000      -7.84720000
Pt      -3.92360000       7.84720000      -3.92360000
Pt      -3.92360000       9.80900000      -1.96180000
Pt      -1.96180000       7.84720000      -1.96180000
Pt      -1.96180000       9.80900000      -3.92360000
Pt      -3.92360000       7.84720000       0.00000000
Pt      -3.92360000       9.80900000       1.96180000
Pt      -1.96180000       7.84720000       1.96180000
Pt      -1.96180000       9.80900000       0.00000000
Pt      -3.92360000       7.84720000       3.92360000
Pt      -3.92360000       9.80900000       5.88540000
Pt      -1.96180000       7.84720000       5.88540000
Pt      -1.96180000       9.80900000       3.92360000
Pt      -3.92360000       7.84720000       7.84720000
Pt      -3.92360000       9.80900000       9.80900000
Pt      -1.96180000       7.84720000       9.80900000
Pt      -1.96180000       9.80900000       7.84720000
Pt      -3.92360000       7.84720000      11.77080000
Pt      -3.92360000       9.80900000      13.73260000
Pt      -1.96180000       7.84720000      13.73260000
Pt      -1.96180000       9.80900000      11.77080000
Pt      -3.92360000       7.84720000      15.69440000
Pt      -3.92360000       9.80900000      17.65620000
Pt      -1.96180000       7.84720000      17.65620000
Pt      -1.96180000       9.80900000      15.69440000
Pt      -3.92360000       7.84720000      19.61800000
Pt      -3.92360000       9.80900000      21.57980000
Pt      -1.96180000       7.84720000      21.57980000
Pt      -1.96180000       9.80900000      19.61800000
Pt      -3.92360000       7.84720000      23.54160000
Pt      -1.96180000       9.80900000      23.54160000
Pt      -1.96180000      11.77080000     -21.57980000
Pt      -3.92360000      11.77080000     -19.61800000
Pt      -3.92360000      13.73260000     -17.65620000
Pt      -1.96180000      11.77080000     -17.65620000
Pt      -1.96180000      13.73260000     -19.61800000
Pt      -3.92360000      11.77080000     -15.69440000
Pt      -3.92360000      13.73260000     -13.73260000
Pt      -1.96180000      11.77080000     -13.73260000
Pt      -1.96180000      13.73260000     -15.69440000
Pt      -3.92360000      11.77080000     -11.77080000
Pt      -3.92360000      13.73260000      -9.80900000
Pt      -1.96180000      11.77080000      -9.80900000
Pt      -1.96180000      13.73260000     -11.77080000
Pt      -3.92360000      11.77080000      -7.84720000
Pt      -3.92360000      13.73260000      -5.88540000
Pt      -1.96180000      11.77080000      -5.88540000
Pt      -1.96180000      13.73260000      -7.84720000
Pt      -3.92360000      11.77080000      -3.92360000
Pt      -3.92360000      13.73260000      -1.96180000
Pt      -1.96180000      11.77080000      -1.96180000
Pt      -1.96180000      13.73260000      -3.92360000
Pt      -3.92360000      11.77080000       0.00000000
Pt      -3.92360000      13.73260000       1.96180000
Pt      -1.96180000      11.77080000       1.96180000
Pt      -1.96180000      13.73260000       0.00000000
Pt      -3.92360000      11.77080000       3.92360000
Pt      -3.92360000      13.73260000       5.88540000
Pt      -1.96180000      11.77080000       5.88540000
Pt      -1.96180000      13.73260000       3.92360000
Pt      -3.92360000      11.77080000       7.84720000
Pt      -3.92360000      13.73260000       9.80900000
Pt      -1.96180000      11.77080000       9.80900000
Pt      -1.96180000      13.73260000       7.84720000
Pt      -3.92360000      11.77080000      11.77080000
Pt      -3.92360000      13.73260000      13.73260000
Pt      -1.96180000      11.77080000      13.73260000
Pt      -1.96180000      13.73260000      11.77080000
Pt      -3.92360000      11.77080000      15.69440000
Pt      -3.92360000      13.73260000      17.65620000
Pt      -1.96180000      11.77080000      17.65620000
Pt      -1.96180000      13.73260000      15.69440000
Pt      -3.92360000      11.77080000      19.61800000
Pt      -1.96180000      11.77080000      21.57980000
Pt      -1.96180000      13.73260000      19.61800000
Pt      -1.96180000      15.69440000     -17.65620000
Pt      -3.92360000      15.69440000     -15.69440000
Pt      -3.92360000      17.65620000     -13.73260000
Pt      -1.96180000      15.69440000     -13.73260000
Pt      -1.96180000      17.65620000     -15.69440000
Pt      -3.92360000      15.69440000     -11.77080000
Pt      -3.92360000      17.65620000      -9.80900000
Pt      -1.96180000      15.69440000      -9.80900000
Pt      -1.96180000      17.65620000     -11.77080000
Pt      -3.92360000      15.69440000      -7.84720000
Pt      -3.92360000      17.65620000      -5.88540000
Pt      -1.96180000      15.69440000      -5.88540000
Pt      -1.96180000      17.65620000      -7.84720000
Pt      -3.92360000      15.69440000      -3.92360000
Pt      -3.92360000      17.65620000      -1.96180000
Pt      -1.96180000      15.69440000      -1.96180000
Pt      -1.96180000      17.65620000      -3.92360000
Pt      -3.92360000      15.69440000       0.00000000
Pt      -3.92360000      17.65620000       1.96180000
Pt      -1.96180000      15.69440000       1.96180000
Pt      -1.96180000      17.65620000       0.00000000
Pt      -3.92360000      15.69440000       3.92360000
Pt      -3.92360000      17.65620000       5.88540000
Pt      -1.96180000      15.69440000       5.88540000
Pt      -1.96180000      17.65620000       3.92360000
Pt      -3.92360000      15.69440000       7.84720000
Pt      -3.92360000      17.65620000       9.80900000
Pt      -1.96180000      15.69440000       9.80900000
Pt      -1.96180000      17.65620000       7.84720000
Pt      -3.92360000      15.69440000      11.77080000
Pt      -3.92360000      17.65620000      13.73260000
Pt      -1.96180000      15.69440000      13.73260000
Pt      -1.96180000      17.65620000      11.77080000
Pt      -3.92360000      15.69440000      15.69440000
Pt      -1.96180000      15.69440000      17.65620000
Pt      -1.96180000      17.65620000      15.69440000
Pt      -1.96180000      19.61800000     -13.73260000
Pt      -3.92360000      19.61800000     -11.77080000
Pt      -3.92360000      21.57980000      -9.80900000
Pt      -1.96180000      19.61800000      -9.80900000
Pt      -1.96180000      21.57980000     -11.77080000
Pt      -3.92360000      19.61800000      -7.84720000
Pt      -3.92360000      21.57980000      -5.88540000
Pt      -1.96180000      19.61800000      -5.88540000
Pt      -1.96180000      21.57980000      -7.84720000
Pt      -3.92360000      19.61800000      -3.92360000
Pt      -3.92360000      21.57980000      -1.96180000
Pt      -1.96180000      19.61800000      -1.96180000
Pt      -1.96180000      21.57980000      -3.92360000
Pt      -3.92360000      19.61800000       0.00000000
Pt      -3.92360000      21.57980000       1.96180000
Pt      -1.96180000      19.61800000       1.96180000
Pt      -1.96180000      21.57980000       0.00000000
Pt      -3.92360000      19.61800000       3.92360000
Pt      -3.92360000      21.57980000       5.88540000
Pt      -1.96180000      19.61800000       5.88540000
Pt      -1.96180000      21.57980000       3.92360000
Pt      -3.92360000      19.61800000       7.84720000
Pt      -3.92360000      21.57980000       9.80900000
Pt      -1.96180000      19.61800000       9.80900000
Pt      -1.96180000      21.57980000       7.84720000
Pt      -3.92360000      19.61800000      11.77080000
Pt      -1.96180000      19.61800000      13.73260000
Pt      -1.96180000      21.57980000      11.77080000
Pt      -1.96180000      23.54160000      -9.80900000
Pt      -3.92360000      23.54160000      -7.84720000
Pt      -1.96180000      23.54160000      -5.88540000
Pt      -3.92360000      23.54160000      -3.92360000
Pt      -3.92360000      25.50340000      -1.96180000
Pt      -1.96180000      23.54160000      -1.96180000
Pt      -1.96180000      25.50340000      -3.92360000
Pt      -3.92360000      23.54160000       0.00000000
Pt      -3.92360000      25.50340000       1.96180000
Pt      -1.96180000      23.54160000       1.96180000
Pt      -1.96180000      25.50340000       0.00000000
Pt      -3.92360000      23.54160000       3.92360000
Pt      -1.96180000      23.54160000       5.88540000
Pt      -1.96180000      25.50340000       3.92360000
Pt      -3.92360000      23.54160000       7.84720000
Pt      -1.96180000      23.54160000       9.80900000
Pt       0.00000000     -25.50340000      -5.88540000
Pt       0.00000000     -25.50340000      -1.96180000
Pt       1.96180000     -25.50340000      -3.92360000
Pt       0.00000000     -25.50340000       1.96180000
Pt       1.96180000     -25.50340000       0.00000000
Pt       0.00000000     -25.50340000       5.88540000
Pt       1.96180000     -25.50340000       3.92360000
Pt       0.00000000     -21.57980000      -9.80900000
Pt       1.96180000     -23.54160000      -9.80900000
Pt       1.96180000     -21.57980000     -11.77080000
Pt       0.00000000     -23.54160000      -7.84720000
Pt       0.00000000     -21.57980000      -5.88540000
Pt       1.96180000     -23.54160000      -5.88540000
Pt       1.96180000     -21.57980000      -7.84720000
Pt       0.00000000     -23.54160000      -3.92360000
Pt       0.00000000     -21.57980000      -1.96180000
Pt       1.96180000     -23.54160000      -1.96180000
Pt       1.96180000     -21.57980000      -3.92360000
Pt       0.00000000     -23.54160000       0.00000000
Pt       0.00000000     -21.57980000       1.96180000
Pt       1.96180000     -23.54160000       1.96180000
Pt       1.96180000     -21.57980000       0.00000000
Pt       0.00000000     -23.54160000       3.92360000
Pt       0.00000000     -21.57980000       5.88540000
Pt       1.96180000     -23.54160000       5.88540000
Pt       1.96180000     -21.57980000       3.92360000
Pt       0.00000000     -23.54160000       7.84720000
Pt       0.00000000     -21.57980000       9.80900000
Pt       1.96180000     -23.54160000       9.80900000
Pt       1.96180000     -21.57980000       7.84720000
Pt       1.96180000     -21.57980000      11.77080000
Pt       0.00000000     -17.65620000     -13.73260000
Pt       1.96180000     -19.61800000     -13.73260000
Pt       1.96180000     -17.65620000     -15.69440000
Pt       0.00000000     -19.61800000     -11.77080000
Pt       0.00000000     -17.65620000      -9.80900000
Pt       1.96180000     -19.61800000      -9.80900000
Pt       1.96180000     -17.65620000     -11.77080000
Pt       0.00000000     -19.61800000      -7.84720000
Pt       0.00000000     -17.65620000      -5.88540000
Pt       1.96180000     -19.61800000      -5.88540000
Pt       1.96180000     -17.65620000      -7.84720000
Pt       0.00000000     -19.61800000      -3.92360000
Pt       0.00000000     -17.65620000      -1.96180000
Pt       1.96180000     -19.61800000      -1.96180000
Pt       1.96180000     -17.65620000      -3.92360000
Pt       0.00000000     -19.61800000       0.00000000
Pt       0.00000000     -17.65620000       1.96180000
Pt       1.96180000     -19.61800000       1.96180000
Pt       1.96180000     -17.65620000       0.00000000
Pt       0.00000000     -19.61800000       3.92360000
Pt       0.00000000     -17.65620000       5.88540000
Pt       1.96180000     -19.61800000       5.88540000
Pt       1.96180000     -17.65620000       3.92360000
Pt       0.00000000     -19.61800000       7.84720000
Pt       0.00000000     -17.65620000       9.80900000
Pt       1.96180000     -19.61800000       9.80900000
Pt       1.96180000     -17.65620000       7.84720000
Pt       0.00000000     -19.61800000      11.77080000
Pt       0.00000000     -17.65620000      13.73260000
Pt       1.96180000     -19.61800000      13.73260000
Pt       1.96180000     -17.65620000      11.77080000
Pt       1.96180000     -17.65620000      15.69440000
Pt       0.00000000     -13.73260000     -17.65620000
Pt       1.96180000     -15.69440000     -17.65620000
Pt       1.96180000     -13.73260000     -19.61800000
Pt       0.00000000     -15.69440000     -15.69440000
Pt       0.00000000     -13.73260000     -13.73260000
Pt       1.96180000     -15.69440000     -13.73260000
Pt       1.96180000     -13.73260000     -15.69440000
Pt       0.00000000     -15.69440000     -11.77080000
Pt       0.00000000     -13.73260000      -9.80900000
Pt       1.96180000     -15.69440000      -9.80900000
Pt       1.96180000     -13.73260000     -11.77080000
Pt       0.00000000     -15.69440000      -7.84720000
Pt       0.00000000     -13.73260000      -5.88540000
Pt       1.96180000     -15.69440000      -5.88540000
Pt       1.96180000     -13.73260000      -7.84720000
Pt       0.00000000     -15.69440000      -3.92360000
Pt       0.00000000     -13.73260000      -1.96180000
Pt       1.96180000     -15.69440000      -1.96180000
Pt       1.96180000     -13.73260000      -3.92360000
Pt       0.00000000     -15.69440000       0.00000000
Pt       0.00000000     -13.73260000       1.96180000
Pt       1.96180000     -15.69440000       1.96180000
Pt       1.96180000     -13.73260000       0.00000000
Pt       0.00000000     -15.69440000       3.92360000
Pt       0.00000000     -13.73260000       5.88540000
Pt       1.96180000     -15.69440000       5.88540000
Pt       1.96180000     -13.73260000       3.92360000
Pt       0.00000000     -15.69440000       7.84720000
Pt       0.00000000     -13.73260000       9.80900000
Pt       1.96180000     -15.69440000       9.80900000
Pt       1.96180000     -13.73260000       7.84720000
Pt       0.00000000     -15.69440000      11.77080000
Pt       0.00000000     -13.73260000      13.73260000
Pt       1.96180000     -15.69440000      13.73260000
Pt       1.96180000     -13.73260000      11.77080000
Pt       0.00000000     -15.69440000      15.69440000
Pt       0.00000000     -13.73260000      17.65620000
Pt       1.96180000     -15.69440000      17.65620000
Pt       1.96180000     -13.73260000      15.69440000
Pt       1.96180000     -13.73260000      19.61800000
Pt       0.00000000      -9.80900000     -21.57980000
Pt       1.96180000     -11.77080000     -21.57980000
Pt       1.96180000      -9.80900000     -23.54160000
Pt       0.00000000     -11.77080000     -19.61800000
Pt       0.00000000      -9.80900000     -17.65620000
Pt       1.96180000     -11.77080000     -17.65620000
Pt       1.96180000      -9.80900000     -19.61800000
Pt       0.00000000     -11.77080000     -15.69440000
Pt       0.00000000      -9.80900000     -13.73260000
Pt       1.96180000     -11.77080000     -13.73260000
Pt       1.96180000      -9.80900000     -15.69440000
Pt       0.00000000     -11.77080000     -11.77080000
Pt       0.00000000      -9.80900000      -9.80900000
Pt       1.96180000     -11.77080000      -9.80900000
Pt       1.96180000      -9.80900000     -11.77080000
Pt       0.00000000     -11.77080000      -7.84720000
Pt       0.00000000      -9.80900000      -5.88540000
Pt       1.96180000     -11.77080000      -5.88540000
Pt       1.96180000      -9.80900000      -7.84720000
Pt       0.00000000     -11.77080000      -3.92360000
Pt       0.00000000      -9.80900000      -1.96180000
Pt       1.96180000     -11.77080000      -1.96180000
Pt       1.96180000      -9.80900000      -3.92360000
Pt       0.00000000     -11.77080000       0.00000000
Pt       0.00000000      -9.80900000       1.96180000
Pt       1.96180000     -11.77080000       1.96180000
Pt       1.96180000      -9.80900000       0.00000000
Pt       0.00000000     -11.77080000       3.92360000
Pt       0.00000000      -9.80900000       5.88540000
Pt       1.96180000     -11.77080000       5.88540000
Pt       1.96180000      -9.80900000       3.92360000
Pt       0.00000000     -11.77080000       7.84720000
Pt       0.00000000      -9.80900000       9.80900000
Pt       1.96180000     -11.77080000       9.80900000
Pt       1.96180000      -9.80900000       7.84720000
Pt       0.00000000     -11.77080000      11.77080000
Pt       0.00000000      -9.80900000      13.73260000
Pt       1.96180000     -11.77080000      13.73260000
Pt       1.96180000      -9.80900000      11.77080000
Pt       0.00000000     -11.77080000      15.69440000
Pt       0.00000000      -9.80900000      17.65620000
Pt       1.96180000     -11.77080000      17.65620000
Pt       1.96180000      -9.80900000      15.69440000
Pt       0.00000000     -11.77080000      19.61800000
Pt       0.00000000      -9.80900000      21.57980000
Pt       1.96180000     -11.77080000      21.57980000
Pt       1.96180000      -9.80900000      19.61800000
Pt       1.96180000      -9.80900000      23.54160000
Pt       0.00000000      -5.88540000     -25.50340000
Pt       0.00000000      -7.84720000     -23.54160000
Pt       0.00000000      -5.88540000     -21.57980000
Pt       1.96180000      -7.84720000     -21.57980000
Pt       1.96180000      -5.88540000     -23.54160000
Pt       0.00000000      -7.84720000     -19.61800000
Pt       0.00000000      -5.88540000     -17.65620000
Pt       1.96180000      -7.84720000     -17.65620000
Pt       1.96180000      -5.88540000     -19.61800000
Pt       0.00000000      -7.84720000     -15.69440000
Pt       0.00000000      -5.88540000     -13.73260000
Pt       1.96180000      -7.84720000     -13.73260000
Pt       1.96180000      -5.88540000     -15.69440000
Pt       0.00000000      -7.84720000     -11.77080000
Pt       0.00000000      -5.88540000      -9.80900000
Pt       1.96180000      -7.84720000      -9.80900000
Pt       1.96180000      -5.88540000     -11.77080000
Pt       0.00000000      -7.84720000      -7.84720000
Pt       0.00000000      -5.88540000      -5.88540000
Pt       1.96180000      -7.84720000      -5.88540000
Pt       1.96180000      -5.88540000      -7.84720000
Pt       0.00000000      -7.84720000      -3.92360000
Pt       0.00000000      -5.88540000      -1.96180000
Pt       1.96180000      -7.84720000      -1.96180000
Pt       1.96180000      -5.88540000      -3.92360000
Pt       0.00000000      -7.84720000       0.00000000
Pt       0.00000000      -5.88540000       1.96180000
Pt       1.96180000      -7.84720000       1.96180000
Pt       1.96180000      -5.88540000       0.00000000
Pt       0.00000000      -7.84720000       3.92360000
Pt       0.00000000      -5.88540000       5.88540000
Pt       1.96180000      -7.84720000       5.88540000
Pt       1.96180000      -5.88540000       3.92360000
Pt       0.00000000      -7.84720000       7.84720000
Pt       0.00000000      -5.88540000       9.80900000
Pt       1.96180000      -7.84720000       9.80900000
Pt       1.96180000      -5.88540000       7.84720000
Pt       0.00000000      -7.84720000      11.77080000
Pt       0.00000000      -5.88540000      13.73260000
Pt       1.96180000      -7.84720000      13.73260000
Pt       1.96180000      -5.88540000      11.77080000
Pt       0.00000000      -7.84720000      15.69440000
Pt       0.00000000      -5.88540000      17.65620000
Pt       1.96180000      -7.84720000      17.65620000
Pt       1.96180000      -5.88540000      15.69440000
Pt       0.00000000      -7.84720000      19.61800000
Pt       0.00000000      -5.88540000      21.57980000
Pt       1.96180000      -7.84720000      21.57980000
Pt       1.96180000      -5.88540000      19.61800000
Pt       0.00000000      -7.84720000      23.54160000
Pt       0.00000000      -5.88540000      25.50340000
Pt       1.96180000      -5.88540000      23.54160000
Pt       0.00000000      -1.96180000     -25.50340000
Pt       1.96180000      -3.92360000     -25.50340000
Pt       0.00000000      -3.92360000     -23.54160000
Pt       0.00000000      -1.96180000     -21.57980000
Pt       1.96180000      -3.92360000     -21.57980000
Pt       1.96180000      -1.96180000     -23.54160000
Pt       0.00000000      -3.92360000     -19.61800000
Pt       0.00000000      -1.96180000     -17.65620000
Pt       1.96180000      -3.92360000     -17.65620000
Pt       1.96180000      -1.96180000     -19.61800000
Pt       0.00000000      -3.92360000     -15.69440000
Pt       0.00000000      -1.96180000     -13.73260000
Pt       1.96180000      -3.92360000     -13.73260000
Pt       1.96180000      -1.96180000     -15.69440000
Pt       0.00000000      -3.92360000     -11.77080000
Pt       0.00000000      -1.96180000      -9.80900000
Pt       1.96180000      -3.92360000      -9.80900000
Pt       1.96180000      -1.96180000     -11.77080000
Pt       0.00000000      -3.92360000      -7.84720000
Pt       0.00000000      -1.96180000      -5.88540000
Pt       1.96180000      -3.92360000      -5.88540000
Pt       1.96180000      -1.96180000      -7.84720000
Pt       0.00000000      -3.92360000      -3.92360000
Pt       0.00000000      -1.96180000      -1.96180000
Pt       1.96180000      -3.92360000      -1.96180000
Pt       1.96180000      -1.96180000      -3.92360000
Pt       0.00000000      -3.92360000       0.00000000
Pt       0.00000000      -1.96180000       1.96180000
Pt       1.96180000      -3.92360000       1.96180000
Pt       1.96180000      -1.96180000       0.00000000
Pt       0.00000000      -3.92360000       3.92360000
Pt       0.00000000      -1.96180000       5.88540000
Pt       1.96180000      -3.92360000       5.88540000
Pt       1.96180000      -1.96180000       3.92360000
Pt       0.00000000      -3.92360000       7.84720000
Pt       0.00000000      -1.96180000       9.80900000
Pt       1.96180000      -3.92360000       9.80900000
Pt       1.96180000      -1.96180000       7.84720000
Pt       0.00000000      -3.92360000      11.77080000
Pt       0.00000000      -1.96180000      13.73260000
Pt       1.96180000      -3.92360000      13.73260000
Pt       1.96180000      -1.96180000      11.77080000
Pt       0.00000000      -3.92360000      15.69440000
Pt       0.00000000      -1.96180000      17.65620000
Pt       1.96180000      -3.92360000      17.65620000
Pt       1.96180000      -1.96180000      15.69440000
Pt       0.00000000      -3.92360000      19.61800000
Pt       0.00000000      -1.96180000      21.57980000
Pt       1.96180000      -3.92360000      21.57980000
Pt       1.96180000      -1.96180000      19.61800000
Pt       0.00000000      -3.92360000      23.54160000
Pt       0.00000000      -1.96180000      25.50340000
Pt       1.96180000      -3.92360000      25.50340000
Pt       1.96180000      -1.96180000      23.54160000
Pt       0.00000000       1.96180000     -25.50340000
Pt       1.96180000       0.00000000     -25.50340000
Pt       0.00000000       0.00000000     -23.54160000
Pt       0.00000000       1.96180000     -21.57980000
Pt       1.96180000       0.00000000     -21.57980000
Pt       1.96180000       1.96180000     -23.54160000
Pt       0.00000000       0.00000000     -19.61800000
Pt       0.00000000       1.96180000     -17.65620000
Pt       1.96180000       0.00000000     -17.65620000
Pt       1.96180000       1.96180000     -19.61800000
Pt       0.00000000       0.00000000     -15.69440000
Pt       0.00000000       1.96180000     -13.73260000
Pt       1.96180000       0.00000000     -13.73260000
Pt       1.96180000       1.96180000     -15.69440000
Pt       0.00000000       0.00000000     -11.77080000
Pt       0.00000000       1.96180000      -9.80900000
Pt       1.96180000       0.00000000      -9.80900000
Pt       1.96180000       1.96180000     -11.77080000
Pt       0.00000000       0.00000000      -7.84720000
Pt       0.00000000       1.96180000      -5.88540000
Pt       1.96180000       0.00000000      -5.88540000
Pt       1.96180000       1.96180000      -7.84720000
Pt       0.00000000       0.00000000      -3.92360000
Pt       0.00000000       1.96180000      -1.96180000
Pt       1.96180000       0.00000000      -1.96180000
Pt       1.96180000       1.96180000      -3.92360000
Pt       0.00000000       0.00000000       0.00000000
Pt       0.00000000       1.96180000       1.96180000
Pt       1.96180000       0.00000000       1.96180000
Pt       1.96180000       1.96180000       0.00000000
Pt       0.00000000       0.00000000       3.92360000
Pt       0.00000000       1.96180000       5.88540000
Pt       1.96180000       0.00000000       5.88540000
Pt       1.96180000       1.96180000       3.92360000
Pt       0.00000000       0.00000000       7.84720000
Pt       0.00000000       1.96180000       9.80900000
Pt       1.96180000       0.00000000       9.80900000
Pt       1.96180000       1.96180000       7.84720000
Pt       0.00000000       0.00000000      11.77080000
Pt       0.00000000       1.96180000      13.73260000
Pt       1.96180000       0.00000000      13.73260000
Pt       1.96180000       1.96180000      11.77080000
Pt       0.00000000       0.00000000      15.69440000
Pt       0.00000000       1.96180000      17.65620000
Pt       1.96180000       0.00000000      17.65620000
Pt       1.96180000       1.96180000      15.69440000
Pt       0.00000000       0.00000000      19.61800000
Pt       0.00000000       1.96180000      21.57980000
Pt       1.96180000       0.00000000      21.57980000
Pt       1.96180000       1.96180000      19.61800000
Pt       0.00000000       0.00000000      23.54160000
Pt       0.00000000       1.96180000      25.50340000
Pt       1.96180000       0.00000000      25.50340000
Pt       1.96180000       1.96180000      23.54160000
Pt       0.00000000       5.88540000     -25.50340000
Pt       1.96180000       3.92360000     -25.50340000
Pt       0.00000000       3.92360000     -23.54160000
Pt       0.00000000       5.88540000     -21.57980000
Pt       1.96180000       3.92360000     -21.57980000
Pt       1.96180000       5.88540000     -23.54160000
Pt       0.00000000       3.92360000     -19.61800000
Pt       0.00000000       5.88540000     -17.65620000
Pt       1.96180000       3.92360000     -17.65620000
Pt       1.96180000       5.88540000     -19.61800000
Pt       0.00000000       3.92360000     -15.69440000
Pt       0.00000000       5.88540000     -13.73260000
Pt       1.96180000       3.92360000     -13.73260000
Pt       1.96180000       5.88540000     -15.69440000
Pt       0.00000000       3.92360000     -11.77080000
Pt       0.00000000       5.88540000      -9.80900000
Pt       1.96180000       3.92360000      -9.80900000
Pt       1.96180000       5.88540000     -11.77080000
Pt       0.00000000       3.92360000      -7.84720000
Pt       0.00000000       5.88540000      -5.88540000
Pt       1.96180000       3.92360000      -5.88540000
Pt       1.96180000       5.88540000      -7.84720000
Pt       0.00000000       3.92360000      -3.92360000
Pt       0.00000000       5.88540000      -1.96180000
Pt       1.96180000       3.92360000      -1.96180000
Pt       1.96180000       5.88540000      -3.92360000
Pt       0.00000000       3.92360000       0.00000000
Pt       0.00000000       5.88540000       1.96180000
Pt       1.96180000       3.92360000       1.96180000
Pt       1.96180000       5.88540000       0.00000000
Pt       0.00000000       3.92360000       3.92360000
Pt       0.00000000       5.88540000       5.88540000
Pt       1.96180000       3.92360000       5.88540000
Pt       1.96180000       5.88540000       3.92360000
Pt       0.00000000       3.92360000       7.84720000
Pt       0.00000000       5.88540000       9.80900000
Pt       1.96180000       3.92360000       9.80900000
Pt       1.96180000       5.88540000       7.84720000
Pt       0.00000000       3.92360000      11.77080000
Pt       0.00000000       5.88540000      13.73260000
Pt       1.96180000       3.92360000      13.73260000
Pt       1.96180000       5.88540000      11.77080000
Pt       0.00000000       3.92360000      15.69440000
Pt       0.00000000       5.88540000      17.65620000
Pt       1.96180000       3.92360000      17.65620000
Pt       1.96180000       5.88540000      15.69440000
Pt       0.00000000       3.92360000      19.61800000
Pt       0.00000000       5.88540000      21.57980000
Pt       1.96180000       3.92360000      21.57980000
Pt       1.96180000       5.88540000      19.61800000
Pt       0.00000000       3.92360000      23.54160000
Pt       0.00000000       5.88540000      25.50340000
Pt       1.96180000       3.92360000      25.50340000
Pt       1.96180000       5.88540000      23.54160000
Pt       0.00000000       7.84720000     -23.54160000
Pt       0.00000000       9.80900000     -21.57980000
Pt       1.96180000       7.84720000     -21.57980000
Pt       1.96180000       9.80900000     -23.54160000
Pt       0.00000000       7.84720000     -19.61800000
Pt       0.00000000       9.80900000     -17.65620000
Pt       1.96180000       7.84720000     -17.65620000
Pt       1.96180000       9.80900000     -19.61800000
Pt       0.00000000       7.84720000     -15.69440000
Pt       0.00000000       9.80900000     -13.73260000
Pt       1.96180000       7.84720000     -13.73260000
Pt       1.96180000       9.80900000     -15.69440000
Pt       0.00000000       7.84720000     -11.77080000
Pt       0.00000000       9.80900000      -9.80900000
Pt       1.96180000       7.84720000      -9.80900000
Pt       1.96180000       9.80900000     -11.77080000
Pt       0.00000000       7.84720000      -7.84720000
Pt       0.00000000       9.80900000      -5.88540000
Pt       1.96180000       7.84720000      -5.88540000
Pt       1.96180000       9.80900000      -7.84720000
Pt       0.00000000       7.84720000      -3.92360000
Pt       0.00000000       9.80900000      -1.96180000
Pt       1.96180000       7.84720000      -1.96180000
Pt       1.96180000       9.80900000      -3.92360000
Pt       0.00000000       7.84720000       0.00000000
Pt       0.00000000       9.80900000       1.96180000
Pt       1.96180000       7.84720000       1.96180000
Pt       1.96180000       9.80900000       0.00000000
Pt       0.00000000       7.84720000       3.92360000
Pt       0.00000000       9.80900000       5.88540000
Pt       1.96180000       7.84720000       5.88540000
Pt       1.96180000       9.80900000       3.92360000
Pt       0.00000000       7.84720000       7.84720000
Pt       0.00000000       9.80900000       9.80900000
Pt       1.96180000       7.84720000       9.80900000
Pt       1.96180000       9.80900000       7.84720000
Pt       0.00000000       7.84720000      11.77080000
Pt       0.00000000       9.80900000      13.73260000
Pt       1.96180000       7.84720000      13.73260000
Pt       1.96180000       9.80900000      11.77080000
Pt       0.00000000       7.84720000      15.69440000
Pt       0.00000000       9.80900000      17.65620000
Pt       1.96180000       7.84720000      17.65620000
Pt       1.96180000       9.80900000      15.69440000
Pt       0.00000000       7.84720000      19.61800000
Pt       0.00000000       9.80900000      21.57980000
Pt       1.96180000       7.84720000      21.57980000
Pt       1.96180000       9.80900000      19.61800000
Pt       0.00000000       7.84720000      23.54160000
Pt       1.96180000       9.80900000      23.54160000
Pt       1.96180000      11.77080000     -21.57980000
Pt       0.00000000      11.77080000     -19.61800000
Pt       0.00000000      13.73260000     -17.65620000
Pt       1.96180000      11.77080000     -17.65620000
Pt       1.96180000      13.73260000     -19.61800000
Pt       0.00000000      11.77080000     -15.69440000
Pt       0.00000000      13.73260000     -13.73260000
Pt       1.96180000      11.77080000     -13.73260000
Pt       1.96180000      13.73260000     -15.69440000
Pt       0.00000000      11.77080000     -11.77080000
Pt       0.00000000      13.73260000      -9.80900000
Pt       1.96180000      11.77080000      -9.80900000
Pt       1.96180000      13.73260000     -11.77080000
Pt       0.00000000      11.77080000      -7.84720000
Pt       0.00000000      13.73260000      -5.88540000
Pt       1.96180000      11.77080000      -5.88540000
Pt       1.96180000      13.73260000      -7.84720000
Pt       0.00000000      11.77080000      -3.92360000
Pt       0.00000000      13.73260000      -1.96180000
Pt       1.96180000      11.77080000      -1.96180000
Pt       1.96180000      13.73260000      -3.92360000
Pt       0.00000000      11.77080000       0.00000000
Pt       0.00000000      13.73260000       1.96180000
Pt       1.96180000      11.77080000       1.96180000
Pt       1.96180000      13.73260000       0.00000000
Pt       0.00000000      11.77080000       3.92360000
Pt       0.00000000      13.73260000       5.88540000
Pt       1.96180000      11.77080000       5.88540000
Pt       1.96180000      13.73260000       3.92360000
Pt       0.00000000      11.77080000       7.84720000
Pt       0.00000000      13.73260000       9.80900000
Pt       1.96180000      11.77080000       9.80900000
Pt       1.96180000      13.73260000       7.84720000
Pt       0.00000000      11.77080000      11.77080000
Pt       0.00000000      13.73260000      13.73260000
Pt       1.96180000      11.77080000      13.73260000
Pt       1.96180000      13.73260000      11.77080000
Pt       0.00000000      11.77080000      15.69440000
Pt       0.00000000      13.73260000      17.65620000
Pt       1.96180000      11.77080000      17.65620000
Pt       1.96180000      13.73260000      15.69440000
Pt       0.00000000      11.77080000      19.61800000
Pt       1.96180000      11.77080000      21.57980000
Pt       1.96180000      13.73260000      19.61800000
Pt       1.96180000      15.69440000     -17.65620000
Pt       0.00000000      15.69440000     -15.69440000
Pt       0.00000000      17.65620000     -13.73260000
Pt       1.96180000      15.69440000     -13.73260000
Pt       1.96180000      17.65620000     -15.69440000
Pt       0.00000000      15.69440000     -11.77080000
Pt       0.00000000      17.65620000      -9.80900000
Pt       1.96180000      15.69440000      -9.80900000
Pt       1.96180000      17.65620000     -11.77080000
Pt       0.00000000      15.69440000      -7.84720000
Pt       0.00000000      17.65620000      -5.88540000
Pt       1.96180000      15.69440000      -5.88540000
Pt       1.96180000      17.65620000      -7.84720000
Pt       0.00000000      15.69440000      -3.92360000
Pt       0.00000000      17.65620000      -1.96180000
Pt       1.96180000      15.69440000      -1.96180000
Pt       1.96180000      17.65620000      -3.92360000
Pt       0.00000000      15.69440000       0.00000000
Pt       0.00000000      17.65620000       1.96180000
Pt       1.96180000      15.69440000       1.96180000
Pt       1.96180000      17.65620000       0.00000000
Pt       0.00000000      15.69440000       3.92360000
Pt       0.00000000      17.65620000       5.88540000
Pt       1.96180000      15.69440000       5.88540000
Pt       1.96180000      17.65620000       3.92360000
Pt       0.00000000      15.69440000       7.84720000
Pt       0.00000000      17.65620000       9.80900000
Pt       1.96180000      15.69440000       9.80900000
Pt       1.96180000      17.65620000       7.84720000
Pt       0.00000000      15.69440000      11.77080000
Pt       0.00000000      17.65620000      13.73260000
Pt       1.96180000      15.69440000      13.73260000
Pt       1.96180000      17.65620000      11.77080000
Pt       0.00000000      15.69440000      15.69440000
Pt       1.96180000      15.69440000      17.65620000
Pt       1.96180000      17.65620000      15.69440000
Pt       1.96180000      19.61800000     -13.73260000
Pt       0.00000000      19.61800000     -11.77080000
Pt       0.00000000      21.57980000      -9.80900000
Pt       1.96180000      19.61800000      -9.80900000
Pt       1.96180000      21.57980000     -11.77080000
Pt       0.00000000      19.61800000      -7.84720000
Pt       0.00000000      21.57980000      -5.88540000
Pt       1.96180000      19.61800000      -5.88540000
Pt       1.96180000      21.57980000      -7.84720000
Pt       0.00000000      19.61800000      -3.92360000
Pt       0.00000000      21.57980000      -1.96180000
Pt       1.96180000      19.61800000      -1.96180000
Pt       1.96180000      21.57980000      -3.92360000
Pt       0.00000000      19.61800000       0.00000000
Pt       0.00000000      21.57980000       1.96180000
Pt       1.96180000      19.61800000       1.96180000
Pt       1.96180000      21.57980000       0.00000000
Pt       0.00000000      19.61800000       3.92360000
Pt       0.00000000      21.57980000       5.88540000
Pt       1.96180000      19.61800000       5.88540000
Pt       1.96180000      21.57980000       3.92360000
Pt       0.00000000      19.61800000       7.84720000
Pt       0.00000000      21.57980000       9.80900000
Pt       1.96180000      19.61800000       9.80900000
Pt       1.96180000      21.57980000       7.84720000
Pt       0.00000000      19.61800000      11.77080000
Pt       1.96180000      19.61800000      13.73260000
Pt       1.96180000      21.57980000      11.77080000
Pt       1.96180000      23.54160000      -9.80900000
Pt       0.00000000      23.54160000      -7.84720000
Pt       0.00000000      25.50340000      -5.88540000
Pt       1.96180000      23.54160000      -5.88540000
Pt       0.00000000      23.54160000      -3.92360000
Pt       0.00000000      25.50340000      -1.96180000
Pt       1.96180000      23.54160000      -1.96180000
Pt       1.96180000      25.50340000      -3.92360000
Pt       0.00000000      23.54160000       0.00000000
Pt       0.00000000      25.50340000       1.96180000
Pt       1.96180000      23.54160000       1.96180000
Pt       1.96180000      25.50340000       0.00000000
Pt       0.00000000      23.54160000       3.92360000
Pt       0.00000000      25.50340000       5.88540000
Pt       1.96180000      23.54160000       5.88540000
Pt       1.96180000      25.50340000       3.92360000
Pt       0.00000000      23.54160000       7.84720000
Pt       1.96180000      23.54160000       9.80900000
Pt       3.92360000     -25.50340000      -1.96180000
Pt       3.92360000     -25.50340000       1.96180000
Pt       5.88540000     -25.50340000       0.00000000
Pt       3.92360000     -21.57980000      -9.80900000
Pt       3.92360000     -23.54160000      -7.84720000
Pt       3.92360000     -21.57980000      -5.88540000
Pt       5.88540000     -23.54160000      -5.88540000
Pt       5.88540000     -21.57980000      -7.84720000
Pt       3.92360000     -23.54160000      -3.92360000
Pt       3.92360000     -21.57980000      -1.96180000
Pt       5.88540000     -23.54160000      -1.96180000
Pt       5.88540000     -21.57980000      -3.92360000
Pt       3.92360000     -23.54160000       0.00000000
Pt       3.92360000     -21.57980000       1.96180000
Pt       5.88540000     -23.54160000       1.96180000
Pt       5.88540000     -21.57980000       0.00000000
Pt       3.92360000     -23.54160000       3.92360000
Pt       3.92360000     -21.57980000       5.88540000
Pt       5.88540000     -23.54160000       5.88540000
Pt       5.88540000     -21.57980000       3.92360000
Pt       3.92360000     -23.54160000       7.84720000
Pt       3.92360000     -21.57980000       9.80900000
Pt       5.88540000     -21.57980000       7.84720000
Pt       3.92360000     -17.65620000     -13.73260000
Pt       3.92360000     -19.61800000     -11.77080000
Pt       3.92360000     -17.65620000      -9.80900000
Pt       5.88540000     -19.61800000      -9.80900000
Pt       5.88540000     -17.65620000     -11.77080000
Pt       3.92360000     -19.61800000      -7.84720000
Pt       3.92360000     -17.65620000      -5.88540000
Pt       5.88540000     -19.61800000      -5.88540000
Pt       5.88540000     -17.65620000      -7.84720000
Pt       3.92360000     -19.61800000      -3.92360000
Pt       3.92360000     -17.65620000      -1.96180000
Pt       5.88540000     -19.61800000      -1.96180000
Pt       5.88540000     -17.65620000      -3.92360000
Pt       3.92360000     -19.61800000       0.00000000
Pt       3.92360000     -17.65620000       1.96180000
Pt       5.88540000     -19.61800000       1.96180000
Pt       5.88540000     -17.65620000       0.00000000
Pt       3.92360000     -19.61800000       3.92360000
Pt       3.92360000     -17.65620000       5.88540000
Pt       5.88540000     -19.61800000       5.88540000
Pt       5.88540000     -17.65620000       3.92360000
Pt       3.92360000     -19.61800000       7.84720000
Pt       3.92360000     -17.65620000       9.80900000
Pt       5.88540000     -19.61800000       9.80900000
Pt       5.88540000     -17.65620000       7.84720000
Pt       3.92360000     -19.61800000      11.77080000
Pt       3.92360000     -17.65620000      13.73260000
Pt       5.88540000     -17.65620000      11.77080000
Pt       3.92360000     -13.73260000     -17.65620000
Pt       3.92360000     -15.69440000     -15.69440000
Pt       3.92360000     -13.73260000     -13.73260000
Pt       5.88540000     -15.69440000     -13.73260000
Pt       5.88540000     -13.73260000     -15.69440000
Pt       3.92360000     -15.69440000     -11.77080000
Pt       3.92360000     -13.73260000      -9.80900000
Pt       5.88540000     -15.69440000      -9.80900000
Pt       5.88540000     -13.73260000     -11.77080000
Pt       3.92360000     -15.69440000      -7.84720000
Pt       3.92360000     -13.73260000      -5.88540000
Pt       5.88540000     -15.69440000      -5.88540000
Pt       5.88540000     -13.73260000      -7.84720000
Pt       3.92360000     -15.69440000      -3.92360000
Pt       3.92360000     -13.73260000      -1.96180000
Pt       5.88540000     -15.69440000      -1.96180000
Pt       5.88540000     -13.73260000      -3.92360000
Pt       3.92360000     -15.69440000       0.00000000
Pt       3.92360000     -13.73260000       1.96180000
Pt       5.88540000     -15.69440000       1.96180000
Pt       5.88540000     -13.73260000       0.00000000
Pt       3.92360000     -15.69440000       3.92360000
Pt       3.92360000     -13.73260000       5.88540000
Pt       5.88540000     -15.69440000       5.88540000
Pt       5.88540000     -13.73260000       3.92360000
Pt       3.92360000     -15.69440000       7.84720000
Pt       3.92360000     -13.73260000       9.80900000
Pt       5.88540000     -15.69440000       9.80900000
Pt       5.88540000     -13.73260000       7.84720000
Pt       3.92360000     -15.69440000      11.77080000
Pt       3.92360000     -13.73260000      13.73260000
Pt       5.88540000     -15.69440000      13.73260000
Pt       5.88540000     -13.73260000      11.77080000
Pt       3.92360000     -15.69440000      15.69440000
Pt       3.92360000     -13.73260000      17.65620000
Pt       5.88540000     -13.73260000      15.69440000
Pt       3.92360000      -9.80900000     -21.57980000
Pt       3.92360000     -11.77080000     -19.61800000
Pt       3.92360000      -9.80900000     -17.65620000
Pt       5.88540000     -11.77080000     -17.65620000
Pt       5.88540000      -9.80900000     -19.61800000
Pt       3.92360000     -11.77080000     -15.69440000
Pt       3.92360000      -9.80900000     -13.73260000
Pt       5.88540000     -11.77080000     -13.73260000
Pt       5.88540000      -9.80900000     -15.69440000
Pt       3.92360000     -11.77080000     -11.77080000
Pt       3.92360000      -9.80900000      -9.80900000
Pt       5.88540000     -11.77080000      -9.80900000
Pt       5.88540000      -9.80900000     -11.77080000
Pt       3.92360000     -11.77080000      -7.84720000
Pt       3.92360000      -9.80900000      -5.88540000
Pt       5.88540000     -11.77080000      -5.88540000
Pt       5.88540000      -9.80900000      -7.84720000
Pt       3.92360000     -11.77080000      -3.92360000
Pt       3.92360000      -9.80900000      -1.96180000
Pt       5.88540000     -11.77080000      -1.96180000
Pt       5.88540000      -9.80900000      -3.92360000
Pt       3.92360000     -11.77080000       0.00000000
Pt       3.92360000      -9.80900000       1.96180000
Pt       5.88540000     -11.77080000       1.96180000
Pt       5.88540000      -9.80900000       0.00000000
Pt       3.92360000     -11.77080000       3.92360000
Pt       3.92360000      -9.80900000       5.88540000
Pt       5.88540000     -11.77080000       5.88540000
Pt       5.88540000      -9.80900000       3.92360000
Pt       3.92360000     -11.77080000       7.84720000
Pt       3.92360000      -9.80900000       9.80900000
Pt       5.88540000     -11.77080000       9.80900000
Pt       5.88540000      -9.80900000       7.84720000
Pt       3.92360000     -11.77080000      11.77080000
Pt       3.92360000      -9.80900000      13.73260000
Pt       5.88540000     -11.77080000      13.73260000
Pt       5.88540000      -9.80900000      11.77080000
Pt       3.92360000     -11.77080000      15.69440000
Pt       3.92360000      -9.80900000      17.65620000
Pt       5.88540000     -11.77080000      17.65620000
Pt       5.88540000      -9.80900000      15.69440000
Pt       3.92360000     -11.77080000      19.61800000
Pt       3.92360000      -9.80900000      21.57980000
Pt       5.88540000      -9.80900000      19.61800000
Pt       3.92360000      -7.84720000     -23.54160000
Pt       3.92360000      -5.88540000     -21.57980000
Pt       5.88540000      -7.84720000     -21.57980000
Pt       5.88540000      -5.88540000     -23.54160000
Pt       3.92360000      -7.84720000     -19.61800000
Pt       3.92360000      -5.88540000     -17.65620000
Pt       5.88540000      -7.84720000     -17.65620000
Pt       5.88540000      -5.88540000     -19.61800000
Pt       3.92360000      -7.84720000     -15.69440000
Pt       3.92360000      -5.88540000     -13.73260000
Pt       5.88540000      -7.84720000     -13.73260000
Pt       5.88540000      -5.88540000     -15.69440000
Pt       3.92360000      -7.84720000     -11.77080000
Pt       3.92360000      -5.88540000      -9.80900000
Pt       5.88540000      -7.84720000      -9.80900000
Pt       5.88540000      -5.88540000     -11.77080000
Pt       3.92360000      -7.84720000      -7.84720000
Pt       3.92360000      -5.88540000      -5.88540000
Pt       5.88540000      -7.84720000      -5.88540000
Pt       5.88540000      -5.88540000      -7.84720000
Pt       3.92360000      -7.84720000      -3.92360000
Pt       3.92360000      -5.88540000      -1.96180000
Pt       5.88540000      -7.84720000      -1.96180000
Pt       5.88540000      -5.88540000      -3.92360000
Pt       3.92360000      -7.84720000       0.00000000
Pt       3.92360000      -5.88540000       1.96180000
Pt       5.88540000      -7.84720000       1.96180000
Pt       5.88540000      -5.88540000       0.00000000
Pt       3.92360000      -7.84720000       3.92360000
Pt       3.92360000      -5.88540000       5.88540000
Pt       5.88540000      -7.84720000       5.88540000
Pt       5.88540000      -5.88540000       3.92360000
Pt       3.92360000      -7.84720000       7.84720000
Pt       3.92360000      -5.88540000       9.80900000
Pt       5.88540000      -7.84720000       9.80900000
Pt       5.88540000      -5.88540000       7.84720000
Pt       3.92360000      -7.84720000      11.77080000
Pt       3.92360000      -5.88540000      13.73260000
Pt       5.88540000      -7.84720000      13.73260000
Pt       5.88540000      -5.88540000      11.77080000
Pt       3.92360000      -7.84720000      15.69440000
Pt       3.92360000      -5.88540000      17.65620000
Pt       5.88540000      -7.84720000      17.65620000
Pt       5.88540000      -5.88540000      15.69440000
Pt       3.92360000      -7.84720000      19.61800000
Pt       3.92360000      -5.88540000      21.57980000
Pt       5.88540000      -7.84720000      21.57980000
Pt       5.88540000      -5.88540000      19.61800000
Pt       3.92360000      -7.84720000      23.54160000
Pt       5.88540000      -5.88540000      23.54160000
Pt       3.92360000      -1.96180000     -25.50340000
Pt       3.92360000      -3.92360000     -23.54160000
Pt       3.92360000      -1.96180000     -21.57980000
Pt       5.88540000      -3.92360000     -21.57980000
Pt       5.88540000      -1.96180000     -23.54160000
Pt       3.92360000      -3.92360000     -19.61800000
Pt       3.92360000      -1.96180000     -17.65620000
Pt       5.88540000      -3.92360000     -17.65620000
Pt       5.88540000      -1.96180000     -19.61800000
Pt       3.92360000      -3.92360000     -15.69440000
Pt       3.92360000      -1.96180000     -13.73260000
Pt       5.88540000      -3.92360000     -13.73260000
Pt       5.88540000      -1.96180000     -15.69440000
Pt       3.92360000      -3.92360000     -11.77080000
Pt       3.92360000      -1.96180000      -9.80900000
Pt       5.88540000      -3.92360000      -9.80900000
Pt       5.88540000      -1.96180000     -11.77080000
Pt       3.92360000      -3.92360000      -7.84720000
Pt       3.92360000      -1.96180000      -5.88540000
Pt       5.88540000      -3.92360000      -5.88540000
Pt       5.88540000      -1.96180000      -7.84720000
Pt       3.92360000      -3.92360000      -3.92360000
Pt       3.92360000      -1.96180000      -1.96180000
Pt       5.88540000      -3.92360000      -1.96180000
Pt       5.88540000      -1.96180000      -3.92360000
Pt       3.92360000      -3.92360000       0.00000000
Pt       3.92360000      -1.96180000       1.96180000
Pt       5.88540000      -3.92360000       1.96180000
Pt       5.88540000      -1.96180000       0.00000000
Pt       3.92360000      -3.92360000       3.92360000
Pt       3.92360000      -1.96180000       5.88540000
Pt       5.88540000      -3.92360000       5.88540000
Pt       5.88540000      -1.96180000       3.92360000
Pt       3.92360000      -3.92360000       7.84720000
Pt       3.92360000      -1.96180000       9.80900000
Pt       5.88540000      -3.92360000       9.80900000
Pt       5.88540000      -1.96180000       7.84720000
Pt       3.92360000      -3.92360000      11.77080000
Pt       3.92360000      -1.96180000      13.73260000
Pt       5.88540000      -3.92360000      13.73260000
Pt       5.88540000      -1.96180000      11.77080000
Pt       3.92360000      -3.92360000      15.69440000
Pt       3.92360000      -1.96180000      17.65620000
Pt       5.88540000      -3.92360000      17.65620000
Pt       5.88540000      -1.96180000      15.69440000
Pt       3.92360000      -3.92360000      19.61800000
Pt       3.92360000      -1.96180000      21.57980000
Pt       5.88540000      -3.92360000      21.57980000
Pt       5.88540000      -1.96180000      19.61800000
Pt       3.92360000      -3.92360000      23.54160000
Pt       3.92360000      -1.96180000      25.50340000
Pt       5.88540000      -1.96180000      23.54160000
Pt       3.92360000       1.96180000     -25.50340000
Pt       5.88540000       0.00000000     -25.50340000
Pt       3.92360000       0.00000000     -23.54160000
Pt       3.92360000       1.96180000     -21.57980000
Pt       5.88540000       0.00000000     -21.57980000
Pt       5.88540000       1.96180000     -23.54160000
Pt       3.92360000       0.00000000     -19.61800000
Pt       3.92360000       1.96180000     -17.65620000
Pt       5.88540000       0.00000000     -17.65620000
Pt       5.88540000       1.96180000     -19.61800000
Pt       3.92360000       0.00000000     -15.69440000
Pt       3.92360000       1.96180000     -13.73260000
Pt       5.88540000       0.00000000     -13.73260000
Pt       5.88540000       1.96180000     -15.69440000
Pt       3.92360000       0.00000000     -11.77080000
Pt       3.92360000       1.96180000      -9.80900000
Pt       5.88540000       0.00000000      -9.80900000
Pt       5.88540000       1.96180000     -11.77080000
Pt       3.92360000       0.00000000      -7.84720000
Pt       3.92360000       1.96180000      -5.88540000
Pt       5.88540000       0.00000000      -5.88540000
Pt       5.88540000       1.96180000      -7.84720000
Pt       3.92360000       0.00000000      -3.92360000
Pt       3.92360000       1.96180000      -1.96180000
Pt       5.88540000       0.00000000      -1.96180000
Pt       5.88540000       1.96180000      -3.92360000
Pt       3.92360000       0.00000000       0.00000000
Pt       3.92360000       1.96180000       1.96180000
Pt       5.88540000       0.00000000       1.96180000
Pt       5.88540000       1.96180000       0.00000000
Pt       3.92360000       0.00000000       3.92360000
Pt       3.92360000       1.96180000       5.88540000
Pt       5.88540000       0.00000000       5.88540000
Pt       5.88540000       1.96180000       3.92360000
Pt       3.92360000       0.00000000       7.84720000
Pt       3.92360000       1.96180000       9.80900000
Pt       5.88540000       0.00000000       9.80900000
Pt       5.88540000       1.96180000       7.84720000
Pt       3.92360000       0.00000000      11.77080000
Pt       3.92360000       1.96180000      13.73260000
Pt       5.88540000       0.00000000      13.73260000
Pt       5.88540000       1.96180000      11.77080000
Pt       3.92360000       0.00000000      15.69440000
Pt       3.92360000       1.96180000      17.65620000
Pt       5.88540000       0.00000000      17.65620000
Pt       5.88540000       1.96180000      15.69440000
Pt       3.92360000       0.00000000      19.61800000
Pt       3.92360000       1.96180000      21.57980000
Pt       5.88540000       0.00000000      21.57980000
Pt       5.88540000       1.96180000      19.61800000
Pt       3.92360000       0.00000000      23.54160000
Pt       3.92360000       1.96180000      25.50340000
Pt       5.88540000       0.00000000      25.50340000
Pt       5.88540000       1.96180000      23.54160000
Pt       3.92360000       3.92360000     -23.54160000
Pt       3.92360000       5.88540000     -21.57980000
Pt       5.88540000       3.92360000     -21.57980000
Pt       5.88540000       5.88540000     -23.54160000
Pt       3.92360000       3.92360000     -19.61800000
Pt       3.92360000       5.88540000     -17.65620000
Pt       5.88540000       3.92360000     -17.65620000
Pt       5.88540000       5.88540000     -19.61800000
Pt       3.92360000       3.92360000     -15.69440000
Pt       3.92360000       5.88540000     -13.73260000
Pt       5.88540000       3.92360000     -13.73260000
Pt       5.88540000       5.88540000     -15.69440000
Pt       3.92360000       3.92360000     -11.77080000
Pt       3.92360000       5.88540000      -9.80900000
Pt       5.88540000       3.92360000      -9.80900000
Pt       5.88540000       5.88540000     -11.77080000
Pt       3.92360000       3.92360000      -7.84720000
Pt       3.92360000       5.88540000      -5.88540000
Pt       5.88540000       3.92360000      -5.88540000
Pt       5.88540000       5.88540000      -7.84720000
Pt       3.92360000       3.92360000      -3.92360000
Pt       3.92360000       5.88540000      -1.96180000
Pt       5.88540000       3.92360000      -1.96180000
Pt       5.88540000       5.88540000      -3.92360000
Pt       3.92360000       3.92360000       0.00000000
Pt       3.92360000       5.88540000       1.96180000
Pt       5.88540000       3.92360000       1.96180000
Pt       5.88540000       5.88540000       0.00000000
Pt       3.92360000       3.92360000       3.92360000
Pt       3.92360000       5.88540000       5.88540000
Pt       5.88540000       3.92360000       5.88540000
Pt       5.88540000       5.88540000       3.92360000
Pt       3.92360000       3.92360000       7.84720000
Pt       3.92360000       5.88540000       9.80900000
Pt       5.88540000       3.92360000       9.80900000
Pt       5.88540000       5.88540000       7.84720000
Pt       3.92360000       3.92360000      11.77080000
Pt       3.92360000       5.88540000      13.73260000
Pt       5.88540000       3.92360000      13.73260000
Pt       5.88540000       5.88540000      11.77080000
Pt       3.92360000       3.92360000      15.69440000
Pt       3.92360000       5.88540000      17.65620000
Pt       5.88540000       3.92360000      17.65620000
Pt       5.88540000       5.88540000      15.69440000
Pt       3.92360000       3.92360000      19.61800000
Pt       3.92360000       5.88540000      21.57980000
Pt       5.88540000       3.92360000      21.57980000
Pt       5.88540000       5.88540000      19.61800000
Pt       3.92360000       3.92360000      23.54160000
Pt       5.88540000       5.88540000      23.54160000
Pt       3.92360000       7.84720000     -23.54160000
Pt       3.92360000       9.80900000     -21.57980000
Pt       5.88540000       7.84720000     -21.57980000
Pt       3.92360000       7.84720000     -19.61800000
Pt       3.92360000       9.80900000     -17.65620000
Pt       5.88540000       7.84720000     -17.65620000
Pt       5.88540000       9.80900000     -19.61800000
Pt       3.92360000       7.84720000     -15.69440000
Pt       3.92360000       9.80900000     -13.73260000
Pt       5.88540000       7.84720000     -13.73260000
Pt       5.88540000       9.80900000     -15.69440000
Pt       3.92360000       7.84720000     -11.77080000
Pt       3.92360000       9.80900000      -9.80900000
Pt       5.88540000       7.84720000      -9.80900000
Pt       5.88540000       9.80900000     -11.77080000
Pt       3.92360000       7.84720000      -7.84720000
Pt       3.92360000       9.80900000      -5.88540000
Pt       5.88540000       7.84720000      -5.88540000
Pt       5.88540000       9.80900000      -7.84720000
Pt       3.92360000       7.84720000      -3.92360000
Pt       3.92360000       9.80900000      -1.96180000
Pt       5.88540000       7.84720000      -1.96180000
Pt       5.88540000       9.80900000      -3.92360000
Pt       3.92360000       7.84720000       0.00000000
Pt       3.92360000       9.80900000       1.96180000
Pt       5.88540000       7.84720000       1.96180000
Pt       5.88540000       9.80900000       0.00000000
Pt       3.92360000       7.84720000       3.92360000
Pt       3.92360000       9.80900000       5.88540000
Pt       5.88540000       7.84720000       5.88540000
Pt       5.88540000       9.80900000       3.92360000
Pt       3.92360000       7.84720000       7.84720000
Pt       3.92360000       9.80900000       9.80900000
Pt       5.88540000       7.84720000       9.80900000
Pt       5.88540000       9.80900000       7.84720000
Pt       3.92360000       7.84720000      11.77080000
Pt       3.92360000       9.80900000      13.73260000
Pt       5.88540000       7.84720000      13.73260000
Pt       5.88540000       9.80900000      11.77080000
Pt       3.92360000       7.84720000      15.69440000
Pt       3.92360000       9.80900000      17.65620000
Pt       5.88540000       7.84720000      17.65620000
Pt       5.88540000       9.80900000      15.69440000
Pt       3.92360000       7.84720000      19.61800000
Pt       3.92360000       9.80900000      21.57980000
Pt       5.88540000       7.84720000      21.57980000
Pt       5.88540000       9.80900000      19.61800000
Pt       3.92360000       7.84720000      23.54160000
Pt       3.92360000      11.77080000     -19.61800000
Pt       3.92360000      13.73260000     -17.65620000
Pt       5.88540000      11.77080000     -17.65620000
Pt       3.92360000      11.77080000     -15.69440000
Pt       3.92360000      13.73260000     -13.73260000
Pt       5.88540000      11.77080000     -13.73260000
Pt       5.88540000      13.73260000     -15.69440000
Pt       3.92360000      11.77080000     -11.77080000
Pt       3.92360000      13.73260000      -9.80900000
Pt       5.88540000      11.77080000      -9.80900000
Pt       5.88540000      13.73260000     -11.77080000
Pt       3.92360000      11.77080000      -7.84720000
Pt       3.92360000      13.73260000      -5.88540000
Pt       5.88540000      11.77080000      -5.88540000
Pt       5.88540000      13.73260000      -7.84720000
Pt       3.92360000      11.77080000      -3.92360000
Pt       3.92360000      13.73260000      -1.96180000
Pt       5.88540000      11.77080000      -1.96180000
Pt       5.88540000      13.73260000      -3.92360000
Pt       3.92360000      11.77080000       0.00000000
Pt       3.92360000      13.73260000       1.96180000
Pt       5.88540000      11.77080000       1.96180000
Pt       5.88540000      13.73260000       0.00000000
Pt       3.92360000      11.77080000       3.92360000
Pt       3.92360000      13.73260000       5.88540000
Pt       5.88540000      11.77080000       5.88540000
Pt       5.88540000      13.73260000       3.92360000
Pt       3.92360000      11.77080000       7.84720000
Pt       3.92360000      13.73260000       9.80900000
Pt       5.88540000      11.77080000       9.80900000
Pt       5.88540000      13.73260000       7.84720000
Pt       3.92360000      11.77080000      11.77080000
Pt       3.92360000      13.73260000      13.73260000
Pt       5.88540000      11.77080000      13.73260000
Pt       5.88540000      13.73260000      11.77080000
Pt       3.92360000      11.77080000      15.69440000
Pt       3.92360000      13.73260000      17.65620000
Pt       5.88540000      11.77080000      17.65620000
Pt       5.88540000      13.73260000      15.69440000
Pt       3.92360000      11.77080000      19.61800000
Pt       3.92360000      15.69440000     -15.69440000
Pt       3.92360000      17.65620000     -13.73260000
Pt       5.88540000      15.69440000     -13.73260000
Pt       3.92360000      15.69440000     -11.77080000
Pt       3.92360000      17.65620000      -9.80900000
Pt       5.88540000      15.69440000      -9.80900000
Pt       5.88540000      17.65620000     -11.77080000
Pt       3.92360000      15.69440000      -7.84720000
Pt       3.92360000      17.65620000      -5.88540000
Pt       5.88540000      15.69440000      -5.88540000
Pt       5.88540000      17.65620000      -7.84720000
Pt       3.92360000      15.69440000      -3.92360000
Pt       3.92360000      17.65620000      -1.96180000
Pt       5.88540000      15.69440000      -1.96180000
Pt       5.88540000      17.65620000      -3.92360000
Pt       3.92360000      15.69440000       0.00000000
Pt       3.92360000      17.65620000       1.96180000
Pt       5.88540000      15.69440000       1.96180000
Pt       5.88540000      17.65620000       0.00000000
Pt       3.92360000      15.69440000       3.92360000
Pt       3.92360000      17.65620000       5.88540000
Pt       5.88540000      15.69440000       5.88540000
Pt       5.88540000      17.65620000       3.92360000
Pt       3.92360000      15.69440000       7.84720000
Pt       3.92360000      17.65620000       9.80900000
Pt       5.88540000      15.69440000       9.80900000
Pt       5.88540000      17.65620000       7.84720000
Pt       3.92360000      15.69440000      11.77080000
Pt       3.92360000      17.65620000      13.73260000
Pt       5.88540000      15.69440000      13.73260000
Pt       5.88540000      17.65620000      11.77080000
Pt       3.92360000      15.69440000      15.69440000
Pt       3.92360000      19.61800000     -11.77080000
Pt       3.92360000      21.57980000      -9.80900000
Pt       5.88540000      19.61800000      -9.80900000
Pt       3.92360000      19.61800000      -7.84720000
Pt       3.92360000      21.57980000      -5.88540000
Pt       5.88540000      19.61800000      -5.88540000
Pt       5.88540000      21.57980000      -7.84720000
Pt       3.92360000      19.61800000      -3.92360000
Pt       3.92360000      21.57980000      -1.96180000
Pt       5.88540000      19.61800000      -1.96180000
Pt       5.88540000      21.57980000      -3.92360000
Pt       3.92360000      19.61800000       0.00000000
Pt       3.92360000      21.57980000       1.96180000
Pt       5.88540000      19.61800000       1.96180000
Pt       5.88540000      21.57980000       0.00000000
Pt       3.92360000      19.61800000       3.92360000
Pt       3.92360000      21.57980000       5.88540000
Pt       5.88540000      19.61800000       5.88540000
Pt       5.88540000      21.57980000       3.92360000
Pt       3.92360000      19.61800000       7.84720000
Pt       3.92360000      21.57980000       9.80900000
Pt       5.88540000      19.61800000       9.80900000
Pt       5.88540000      21.57980000       7.84720000
Pt       3.92360000      19.61800000      11.77080000
Pt       3.92360000      23.54160000      -7.84720000
Pt       5.88540000      23.54160000      -5.88540000
Pt       3.92360000      23.54160000      -3.92360000
Pt       3.92360000      25.50340000      -1.96180000
Pt       5.88540000      23.54160000      -1.96180000
Pt       3.92360000      23.54160000       0.00000000
Pt       3.92360000      25.50340000       1.96180000
Pt       5.88540000      23.54160000       1.96180000
Pt       5.88540000      25.50340000       0.00000000
Pt       3.92360000      23.54160000       3.92360000
Pt       5.88540000      23.54160000       5.88540000
Pt       3.92360000      23.54160000       7.84720000
Pt       7.84720000     -21.57980000      -5.88540000
Pt       7.84720000     -23.54160000      -3.92360000
Pt       7.84720000     -21.57980000      -1.96180000
Pt       9.80900000     -23.54160000      -1.96180000
Pt       9.80900000     -21.57980000      -3.92360000
Pt       7.84720000     -23.54160000       0.00000000
Pt       7.84720000     -21.57980000       1.96180000
Pt       9.80900000     -23.54160000       1.96180000
Pt       9.80900000     -21.57980000       0.00000000
Pt       7.84720000     -23.54160000       3.92360000
Pt       7.84720000     -21.57980000       5.88540000
Pt       9.80900000     -21.57980000       3.92360000
Pt       7.84720000     -17.65620000      -9.80900000
Pt       7.84720000     -19.61800000      -7.84720000
Pt       7.84720000     -17.65620000      -5.88540000
Pt       9.80900000     -19.61800000      -5.88540000
Pt       9.80900000     -17.65620000      -7.84720000
Pt       7.84720000     -19.61800000      -3.92360000
Pt       7.84720000     -17.65620000      -1.96180000
Pt       9.80900000     -19.61800000      -1.96180000
Pt       9.80900000     -17.65620000      -3.92360000
Pt       7.84720000     -19.61800000       0.00000000
Pt       7.84720000     -17.65620000       1.96180000
Pt       9.80900000     -19.61800000       1.96180000
Pt       9.80900000     -17.65620000       0.00000000
Pt       7.84720000     -19.61800000       3.92360000
Pt       7.84720000     -17.65620000       5.88540000
Pt       9.80900000     -19.61800000       5.88540000
Pt       9.80900000     -17.65620000       3.92360000
Pt       7.84720000     -19.61800000       7.84720000
Pt       7.84720000     -17.65620000       9.80900000
Pt       9.80900000     -17.65620000       7.84720000
Pt       7.84720000     -13.73260000     -13.73260000
Pt       7.84720000     -15.69440000     -11.77080000
Pt       7.84720000     -13.73260000      -9.80900000
Pt       9.80900000     -15.69440000      -9.80900000
Pt       9.80900000     -13.73260000     -11.77080000
Pt       7.84720000     -15.69440000      -7.84720000
Pt       7.84720000     -13.73260000      -5.88540000
Pt       9.80900000     -15.69440000      -5.88540000
Pt       9.80900000     -13.73260000      -7.84720000
Pt       7.84720000     -15.69440000      -3.92360000
Pt       7.84720000     -13.73260000      -1.96180000
Pt       9.80900000     -15.69440000      -1.96180000
Pt       9.80900000     -13.73260000      -3.92360000
Pt       7.84720000     -15.69440000       0.00000000
Pt       7.84720000     -13.73260000       1.96180000
Pt       9.80900000     -15.69440000       1.96180000
Pt       9.80900000     -13.73260000       0.00000000
Pt       7.84720000     -15.69440000       3.92360000
Pt       7.84720000     -13.73260000       5.88540000
Pt       9.80900000     -15.69440000       5.88540000
Pt       9.80900000     -13.73260000       3.92360000
Pt       7.84720000     -15.69440000       7.84720000
Pt       7.84720000     -13.73260000       9.80900000
Pt       9.80900000     -15.69440000       9.80900000
Pt       9.80900000     -13.73260000       7.84720000
Pt       7.84720000     -15.69440000      11.77080000
Pt       7.84720000     -13.73260000      13.73260000
Pt       9.80900000     -13.73260000      11.77080000
Pt       7.84720000      -9.80900000     -17.65620000
Pt       7.84720000     -11.77080000     -15.69440000
Pt       7.84720000      -9.80900000     -13.73260000
Pt       9.80900000     -11.77080000     -13.73260000
Pt       9.80900000      -9.80900000     -15.69440000
Pt       7.84720000     -11.77080000     -11.77080000
Pt       7.84720000      -9.80900000      -9.80900000
Pt       9.80900000     -11.77080000      -9.80900000
Pt       9.80900000      -9.80900000     -11.77080000
Pt       7.84720000     -11.77080000      -7.84720000
Pt       7.84720000      -9.80900000      -5.88540000
Pt       9.80900000     -11.77080000      -5.88540000
Pt       9.80900000      -9.80900000      -7.84720000
Pt       7.84720000     -11.77080000      -3.92360000
Pt       7.84720000      -9.80900000      -1.96180000
Pt       9.80900000     -11.77080000      -1.96180000
Pt       9.80900000      -9.80900000      -3.92360000
Pt       7.84720000     -11.77080000       0.00000000
Pt       7.84720000      -9.80900000       1.96180000
Pt       9.80900000     -11.77080000       1.96180000
Pt       9.80900000      -9.80900000       0.00000000
Pt       7.84720000     -11.77080000       3.92360000
Pt       7.84720000      -9.80900000       5.88540000
Pt       9.80900000     -11.77080000       5.88540000
Pt       9.80900000      -9.80900000       3.92360000
Pt       7.84720000     -11.77080000       7.84720000
Pt       7.84720000      -9.80900000       9.80900000
Pt       9.80900000     -11.77080000       9.80900000
Pt       9.80900000      -9.80900000       7.84720000
Pt       7.84720000     -11.77080000      11.77080000
Pt       7.84720000      -9.80900000      13.73260000
Pt       9.80900000     -11.77080000      13.73260000
Pt       9.80900000      -9.80900000      11.77080000
Pt       7.84720000     -11.77080000      15.69440000
Pt       7.84720000      -9.80900000      17.65620000
Pt       9.80900000      -9.80900000      15.69440000
Pt       7.84720000      -5.88540000     -21.57980000
Pt       7.84720000      -7.84720000     -19.61800000
Pt       7.84720000      -5.88540000     -17.65620000
Pt       9.80900000      -7.84720000     -17.65620000
Pt       9.80900000      -5.88540000     -19.61800000
Pt       7.84720000      -7.84720000     -15.69440000
Pt       7.84720000      -5.88540000     -13.73260000
Pt       9.80900000      -7.84720000     -13.73260000
Pt       9.80900000      -5.88540000     -15.69440000
Pt       7.84720000      -7.84720000     -11.77080000
Pt       7.84720000      -5.88540000      -9.80900000
Pt       9.80900000      -7.84720000      -9.80900000
Pt       9.80900000      -5.88540000     -11.77080000
Pt       7.84720000      -7.84720000      -7.84720000
Pt       7.84720000      -5.88540000      -5.88540000
Pt       9.80900000      -7.84720000      -5.88540000
Pt       9.80900000      -5.88540000      -7.84720000
Pt       7.84720000      -7.84720000      -3.92360000
Pt       7.84720000      -5.88540000      -1.96180000
Pt       9.80900000      -7.84720000      -1.96180000
Pt       9.80900000      -5.88540000      -3.92360000
Pt       7.84720000      -7.84720000       0.00000000
Pt       7.84720000      -5.88540000       1.96180000
Pt       9.80900000      -7.84720000       1.96180000
Pt       9.80900000      -5.88540000       0.00000000
Pt       7.84720000      -7.84720000       3.92360000
Pt       7.84720000      -5.88540000       5.88540000
Pt       9.80900000      -7.84720000       5.88540000
Pt       9.80900000      -5.88540000       3.92360000
Pt       7.84720000      -7.84720000       7.84720000
Pt       7.84720000      -5.88540000       9.80900000
Pt       9.80900000      -7.84720000       9.80900000
Pt       9.80900000      -5.88540000       7.84720000
Pt       7.84720000      -7.84720000      11.77080000
Pt       7.84720000      -5.88540000      13.73260000
Pt       9.80900000      -7.84720000      13.73260000
Pt       9.80900000      -5.88540000      11.77080000
Pt       7.84720000      -7.84720000      15.69440000
Pt       7.84720000      -5.88540000      17.65620000
Pt       9.80900000      -7.84720000      17.65620000
Pt       9.80900000      -5.88540000      15.69440000
Pt       7.84720000      -7.84720000      19.61800000
Pt       7.84720000      -5.88540000      21.57980000
Pt       9.80900000      -5.88540000      19.61800000
Pt       7.84720000      -3.92360000     -23.54160000
Pt       7.84720000      -1.96180000     -21.57980000
Pt       9.80900000      -3.92360000     -21.57980000
Pt       9.80900000      -1.96180000     -23.54160000
Pt       7.84720000      -3.92360000     -19.61800000
Pt       7.84720000      -1.96180000     -17.65620000
Pt       9.80900000      -3.92360000     -17.65620000
Pt       9.80900000      -1.96180000     -19.61800000
Pt       7.84720000      -3.92360000     -15.69440000
Pt       7.84720000      -1.96180000     -13.73260000
Pt       9.80900000      -3.92360000     -13.73260000
Pt       9.80900000      -1.96180000     -15.69440000
Pt       7.84720000      -3.92360000     -11.77080000
Pt       7.84720000      -1.96180000      -9.80900000
Pt       9.80900000      -3.92360000      -9.80900000
Pt       9.80900000      -1.96180000     -11.77080000
Pt       7.84720000      -3.92360000      -7.84720000
Pt       7.84720000      -1.96180000      -5.88540000
Pt       9.80900000      -3.92360000      -5.88540000
Pt       9.80900000      -1.96180000      -7.84720000
Pt       7.84720000      -3.92360000      -3.92360000
Pt       7.84720000      -1.96180000      -1.96180000
Pt       9.80900000      -3.92360000      -1.96180000
Pt       9.80900000      -1.96180000      -3.92360000
Pt       7.84720000      -3.92360000       0.00000000
Pt       7.84720000      -1.96180000       1.96180000
Pt       9.80900000      -3.92360000       1.96180000
Pt       9.80900000      -1.96180000       0.00000000
Pt       7.84720000      -3.92360000       3.92360000
Pt       7.84720000      -1.96180000       5.88540000
Pt       9.80900000      -3.92360000       5.88540000
Pt       9.80900000      -1.96180000       3.92360000
Pt       7.84720000      -3.92360000       7.84720000
Pt       7.84720000      -1.96180000       9.80900000
Pt       9.80900000      -3.92360000       9.80900000
Pt       9.80900000      -1.96180000       7.84720000
Pt       7.84720000      -3.92360000      11.77080000
Pt       7.84720000      -1.96180000      13.73260000
Pt       9.80900000      -3.92360000      13.73260000
Pt       9.80900000      -1.96180000      11.77080000
Pt       7.84720000      -3.92360000      15.69440000
Pt       7.84720000      -1.96180000      17.65620000
Pt       9.80900000      -3.92360000      17.65620000
Pt       9.80900000      -1.96180000      15.69440000
Pt       7.84720000      -3.92360000      19.61800000
Pt       7.84720000      -1.96180000      21.57980000
Pt       9.80900000      -3.92360000      21.57980000
Pt       9.80900000      -1.96180000      19.61800000
Pt       7.84720000      -3.92360000      23.54160000
Pt       9.80900000      -1.96180000      23.54160000
Pt       7.84720000       0.00000000     -23.54160000
Pt       7.84720000       1.96180000     -21.57980000
Pt       9.80900000       0.00000000     -21.57980000
Pt       9.80900000       1.96180000     -23.54160000
Pt       7.84720000       0.00000000     -19.61800000
Pt       7.84720000       1.96180000     -17.65620000
Pt       9.80900000       0.00000000     -17.65620000
Pt       9.80900000       1.96180000     -19.61800000
Pt       7.84720000       0.00000000     -15.69440000
Pt       7.84720000       1.96180000     -13.73260000
Pt       9.80900000       0.00000000     -13.73260000
Pt       9.80900000       1.96180000     -15.69440000
Pt       7.84720000       0.00000000     -11.77080000
Pt       7.84720000       1.96180000      -9.80900000
Pt       9.80900000       0.00000000      -9.80900000
Pt       9.80900000       1.96180000     -11.77080000
Pt       7.84720000       0.00000000      -7.84720000
Pt       7.84720000       1.96180000      -5.88540000
Pt       9.80900000       0.00000000      -5.88540000
Pt       9.80900000       1.96180000      -7.84720000
Pt       7.84720000       0.00000000      -3.92360000
Pt       7.84720000       1.96180000      -1.96180000
Pt       9.80900000       0.00000000      -1.96180000
Pt       9.80900000       1.96180000      -3.92360000
Pt       7.84720000       0.00000000       0.00000000
Pt       7.84720000       1.96180000       1.96180000
Pt       9.80900000       0.00000000       1.96180000
Pt       9.80900000       1.96180000       0.00000000
Pt       7.84720000       0.00000000       3.92360000
Pt       7.84720000       1.96180000       5.88540000
Pt       9.80900000       0.00000000       5.88540000
Pt       9.80900000       1.96180000       3.92360000
Pt       7.84720000       0.00000000       7.84720000
Pt       7.84720000       1.96180000       9.80900000
Pt       9.80900000       0.00000000       9.80900000
Pt       9.80900000       1.96180000       7.84720000
Pt       7.84720000       0.00000000      11.77080000
Pt       7.84720000       1.96180000      13.73260000
Pt       9.80900000       0.00000000      13.73260000
Pt       9.80900000       1.96180000      11.77080000
Pt       7.84720000       0.00000000      15.69440000
Pt       7.84720000       1.96180000      17.65620000
Pt       9.80900000       0.00000000      17.65620000
Pt       9.80900000       1.96180000      15.69440000
Pt       7.84720000       0.00000000      19.61800000
Pt       7.84720000       1.96180000      21.57980000
Pt       9.80900000       0.00000000      21.57980000
Pt       9.80900000       1.96180000      19.61800000
Pt       7.84720000       0.00000000      23.54160000
Pt       9.80900000       1.96180000      23.54160000
Pt       7.84720000       3.92360000     -23.54160000
Pt       7.84720000       5.88540000     -21.57980000
Pt       9.80900000       3.92360000     -21.57980000
Pt       7.84720000       3.92360000     -19.61800000
Pt       7.84720000       5.88540000     -17.65620000
Pt       9.80900000       3.92360000     -17.65620000
Pt       9.80900000       5.88540000     -19.61800000
Pt       7.84720000       3.92360000     -15.69440000
Pt       7.84720000       5.88540000     -13.73260000
Pt       9.80900000       3.92360000     -13.73260000
Pt       9.80900000       5.88540000     -15.69440000
Pt       7.84720000       3.92360000     -11.77080000
Pt       7.84720000       5.88540000      -9.80900000
Pt       9.80900000       3.92360000      -9.80900000
Pt       9.80900000       5.88540000     -11.77080000
Pt       7.84720000       3.92360000      -7.84720000
Pt       7.84720000       5.88540000      -5.88540000
Pt       9.80900000       3.92360000      -5.88540000
Pt       9.80900000       5.88540000      -7.84720000
Pt       7.84720000       3.92360000      -3.92360000
Pt       7.84720000       5.88540000      -1.96180000
Pt       9.80900000       3.92360000      -1.96180000
Pt       9.80900000       5.88540000      -3.92360000
Pt       7.84720000       3.92360000       0.00000000
Pt       7.84720000       5.88540000       1.96180000
Pt       9.80900000       3.92360000       1.96180000
Pt       9.80900000       5.88540000       0.00000000
Pt       7.84720000       3.92360000       3.92360000
Pt       7.84720000       5.88540000       5.88540000
Pt       9.80900000       3.92360000       5.88540000
Pt       9.80900000       5.88540000       3.92360000
Pt       7.84720000       3.92360000       7.84720000
Pt       7.84720000       5.88540000       9.80900000
Pt       9.80900000       3.92360000       9.80900000
Pt       9.80900000       5.88540000       7.84720000
Pt       7.84720000       3.92360000      11.77080000
Pt       7.84720000       5.88540000      13.73260000
Pt       9.80900000       3.92360000      13.73260000
Pt       9.80900000       5.88540000      11.77080000
Pt       7.84720000       3.92360000      15.69440000
Pt       7.84720000       5.88540000      17.65620000
Pt       9.80900000       3.92360000      17.65620000
Pt       9.80900000       5.88540000      15.69440000
Pt       7.84720000       3.92360000      19.61800000
Pt       7.84720000       5.88540000      21.57980000
Pt       9.80900000       3.92360000      21.57980000
Pt       9.80900000       5.88540000      19.61800000
Pt       7.84720000       3.92360000      23.54160000
Pt       7.84720000       7.84720000     -19.61800000
Pt       7.84720000       9.80900000     -17.65620000
Pt       9.80900000       7.84720000     -17.65620000
Pt       7.84720000       7.84720000     -15.69440000
Pt       7.84720000       9.80900000     -13.73260000
Pt       9.80900000       7.84720000     -13.73260000
Pt       9.80900000       9.80900000     -15.69440000
Pt       7.84720000       7.84720000     -11.77080000
Pt       7.84720000       9.80900000      -9.80900000
Pt       9.80900000       7.84720000      -9.80900000
Pt       9.80900000       9.80900000     -11.77080000
Pt       7.84720000       7.84720000      -7.84720000
Pt       7.84720000       9.80900000      -5.88540000
Pt       9.80900000       7.84720000      -5.88540000
Pt       9.80900000       9.80900000      -7.84720000
Pt       7.84720000       7.84720000      -3.92360000
Pt       7.84720000       9.80900000      -1.96180000
Pt       9.80900000       7.84720000      -1.96180000
Pt       9.80900000       9.80900000      -3.92360000
Pt       7.84720000       7.84720000       0.00000000
Pt       7.84720000       9.80900000       1.96180000
Pt       9.80900000       7.84720000       1.96180000
Pt       9.80900000       9.80900000       0.00000000
Pt       7.84720000       7.84720000       3.92360000
Pt       7.84720000       9.80900000       5.88540000
Pt       9.80900000       7.84720000       5.88540000
Pt       9.80900000       9.80900000       3.92360000
Pt       7.84720000       7.84720000       7.84720000
Pt       7.84720000       9.80900000       9.80900000
Pt       9.80900000       7.84720000       9.80900000
Pt       9.80900000       9.80900000       7.84720000
Pt       7.84720000       7.84720000      11.77080000
Pt       7.84720000       9.80900000      13.73260000
Pt       9.80900000       7.84720000      13.73260000
Pt       9.80900000       9.80900000      11.77080000
Pt       7.84720000       7.84720000      15.69440000
Pt       7.84720000       9.80900000      17.65620000
Pt       9.80900000       7.84720000      17.65620000
Pt       9.80900000       9.80900000      15.69440000
Pt       7.84720000       7.84720000      19.61800000
Pt       7.84720000      11.77080000     -15.69440000
Pt       7.84720000      13.73260000     -13.73260000
Pt       9.80900000      11.77080000     -13.73260000
Pt       7.84720000      11.77080000     -11.77080000
Pt       7.84720000      13.73260000      -9.80900000
Pt       9.80900000      11.77080000      -9.80900000
Pt       9.80900000      13.73260000     -11.77080000
Pt       7.84720000      11.77080000      -7.84720000
Pt       7.84720000      13.73260000      -5.88540000
Pt       9.80900000      11.77080000      -5.88540000
Pt       9.80900000      13.73260000      -7.84720000
Pt       7.84720000      11.77080000      -3.92360000
Pt       7.84720000      13.73260000      -1.96180000
Pt       9.80900000      11.77080000      -1.96180000
Pt       9.80900000      13.73260000      -3.92360000
Pt       7.84720000      11.77080000       0.00000000
Pt       7.84720000      13.73260000       1.96180000
Pt       9.80900000      11.77080000       1.96180000
Pt       9.80900000      13.73260000       0.00000000
Pt       7.84720000      11.77080000       3.92360000
Pt       7.84720000      13.73260000       5.88540000
Pt       9.80900000      11.77080000       5.88540000
Pt       9.80900000      13.73260000       3.92360000
Pt       7.84720000      11.77080000       7.84720000
Pt       7.84720000      13.73260000       9.80900000
Pt       9.80900000      11.77080000       9.80900000
Pt       9.80900000      13.73260000       7.84720000
Pt       7.84720000      11.77080000      11.77080000
Pt       7.84720000      13.73260000      13.73260000
Pt       9.80900000      11.77080000      13.73260000
Pt       9.80900000      13.73260000      11.77080000
Pt       7.84720000      11.77080000      15.69440000
Pt       7.84720000      15.69440000     -11.77080000
Pt       7.84720000      17.65620000      -9.80900000
Pt       9.80900000      15.69440000      -9.80900000
Pt       7.84720000      15.69440000      -7.84720000
Pt       7.84720000      17.65620000      -5.88540000
Pt       9.80900000      15.69440000      -5.88540000
Pt       9.80900000      17.65620000      -7.84720000
Pt       7.84720000      15.69440000      -3.92360000
Pt       7.84720000      17.65620000      -1.96180000
Pt       9.80900000      15.69440000      -1.96180000
Pt       9.80900000      17.65620000      -3.92360000
Pt       7.84720000      15.69440000       0.00000000
Pt       7.84720000      17.65620000       1.96180000
Pt       9.80900000      15.69440000       1.96180000
Pt       9.80900000      17.65620000       0.00000000
Pt       7.84720000      15.69440000       3.92360000
Pt       7.84720000      17.65620000       5.88540000
Pt       9.80900000      15.69440000       5.88540000
Pt       9.80900000      17.65620000       3.92360000
Pt       7.84720000      15.69440000       7.84720000
Pt       7.84720000      17.65620000       9.80900000
Pt       9.80900000      15.69440000       9.80900000
Pt       9.80900000      17.65620000       7.84720000
Pt       7.84720000      15.69440000      11.77080000
Pt       7.84720000      19.61800000      -7.84720000
Pt       7.84720000      21.57980000      -5.88540000
Pt       9.80900000      19.61800000      -5.88540000
Pt       7.84720000      19.61800000      -3.92360000
Pt       7.84720000      21.57980000      -1.96180000
Pt       9.80900000      19.61800000      -1.96180000
Pt       9.80900000      21.57980000      -3.92360000
Pt       7.84720000      19.61800000       0.00000000
Pt       7.84720000      21.57980000       1.96180000
Pt       9.80900000      19.61800000       1.96180000
Pt       9.80900000      21.57980000       0.00000000
Pt       7.84720000      19.61800000       3.92360000
Pt       7.84720000      21.57980000       5.88540000
Pt       9.80900000      19.61800000       5.88540000
Pt       9.80900000      21.57980000       3.92360000
Pt       7.84720000      19.61800000       7.84720000
Pt       7.84720000      23.54160000      -3.92360000
Pt       9.80900000      23.54160000      -1.96180000
Pt       7.84720000      23.54160000       0.00000000
Pt       9.80900000      23.54160000       1.96180000
Pt       7.84720000      23.54160000       3.92360000
Pt      11.77080000     -21.57980000      -1.96180000
Pt      11.77080000     -21.57980000       1.96180000
Pt      11.77080000     -17.65620000      -5.88540000
Pt      11.77080000     -19.61800000      -3.92360000
Pt      11.77080000     -17.65620000      -1.96180000
Pt      13.73260000     -19.61800000      -1.96180000
Pt      13.73260000     -17.65620000      -3.92360000
Pt      11.77080000     -19.61800000       0.00000000
Pt      11.77080000     -17.65620000       1.96180000
Pt      13.73260000     -19.61800000       1.96180000
Pt      13.73260000     -17.65620000       0.00000000
Pt      11.77080000     -19.61800000       3.92360000
Pt      11.77080000     -17.65620000       5.88540000
Pt      13.73260000     -17.65620000       3.92360000
Pt      11.77080000     -13.73260000      -9.80900000
Pt      11.77080000     -15.69440000      -7.84720000
Pt      11.77080000     -13.73260000      -5.88540000
Pt      13.73260000     -15.69440000      -5.88540000
Pt      13.73260000     -13.73260000      -7.84720000
Pt      11.77080000     -15.69440000      -3.92360000
Pt      11.77080000     -13.73260000      -1.96180000
Pt      13.73260000     -15.69440000      -1.96180000
Pt      13.73260000     -13.73260000      -3.92360000
Pt      11.77080000     -15.69440000       0.00000000
Pt      11.77080000     -13.73260000       1.96180000
Pt      13.73260000     -15.69440000       1.96180000
Pt      13.73260000     -13.73260000       0.00000000
Pt      11.77080000     -15.69440000       3.92360000
Pt      11.77080000     -13.73260000       5.88540000
Pt      13.73260000     -15.69440000       5.88540000
Pt      13.73260000     -13.73260000       3.92360000
Pt      11.77080000     -15.69440000       7.84720000
Pt      11.77080000     -13.73260000       9.80900000
Pt      13.73260000     -13.73260000       7.84720000
Pt      11.77080000      -9.80900000     -13.73260000
Pt      11.77080000     -11.77080000     -11.77080000
Pt      11.77080000      -9.80900000      -9.80900000
Pt      13.73260000     -11.77080000      -9.80900000
Pt      13.73260000      -9.80900000     -11.77080000
Pt      11.77080000     -11.77080000      -7.84720000
Pt      11.77080000      -9.80900000      -5.88540000
Pt      13.73260000     -11.77080000      -5.88540000
Pt      13.73260000      -9.80900000      -7.84720000
Pt      11.77080000     -11.77080000      -3.92360000
Pt      11.77080000      -9.80900000      -1.96180000
Pt      13.73260000     -11.77080000      -1.96180000
Pt      13.73260000      -9.80900000      -3.92360000
Pt      11.77080000     -11.77080000       0.00000000
Pt      11.77080000      -9.80900000       1.96180000
Pt      13.73260000     -11.77080000       1.96180000
Pt      13.73260000      -9.80900000       0.00000000
Pt      11.77080000     -11.77080000       3.92360000
Pt      11.77080000      -9.80900000       5.88540000
Pt      13.73260000     -11.77080000       5.88540000
Pt      13.73260000      -9.80900000       3.92360000
Pt      11.77080000     -11.77080000       7.84720000
Pt      11.77080000      -9.80900000       9.80900000
Pt      13.73260000     -11.77080000       9.80900000
Pt      13.73260000      -9.80900000       7.84720000
Pt      11.77080000     -11.77080000      11.77080000
Pt      11.77080000      -9.80900000      13.73260000
Pt      13.73260000      -9.80900000      11.77080000
Pt      11.77080000      -5.88540000     -17.65620000
Pt      11.77080000      -7.84720000     -15.69440000
Pt      11.77080000      -5.88540000     -13.73260000
Pt      13.73260000      -7.84720000     -13.73260000
Pt      13.73260000      -5.88540000     -15.69440000
Pt      11.77080000      -7.84720000     -11.77080000
Pt      11.77080000      -5.88540000      -9.80900000
Pt      13.73260000      -7.84720000      -9.80900000
Pt      13.73260000      -5.88540000     -11.77080000
Pt      11.77080000      -7.84720000      -7.84720000
Pt      11.77080000      -5.88540000      -5.88540000
Pt      13.73260000      -7.84720000      -5.88540000
Pt      13.73260000      -5.88540000      -7.84720000
Pt      11.77080000      -7.84720000      -3.92360000
Pt      11.77080000      -5.88540000      -1.96180000
Pt      13.73260000      -7.84720000      -1.96180000
Pt      13.73260000      -5.88540000      -3.92360000
Pt      11.77080000      -7.84720000       0.00000000
Pt      11.77080000      -5.88540000       1.96180000
Pt      13.73260000      -7.84720000       1.96180000
Pt      13.73260000      -5.88540000       0.00000000
Pt      11.77080000      -7.84720000       3.92360000
Pt      11.77080000      -5.88540000       5.88540000
Pt      13.73260000      -7.84720000       5.88540000
Pt      13.73260000      -5.88540000       3.92360000
Pt      11.77080000      -7.84720000       7.84720000
Pt      11.77080000      -5.88540000       9.80900000
Pt      13.73260000      -7.84720000       9.80900000
Pt      13.73260000      -5.88540000       7.84720000
Pt      11.77080000      -7.84720000      11.77080000
Pt      11.77080000      -5.88540000      13.73260000
Pt      13.73260000      -7.84720000      13.73260000
Pt      13.73260000      -5.88540000      11.77080000
Pt      11.77080000      -7.84720000      15.69440000
Pt      11.77080000      -5.88540000      17.65620000
Pt      13.73260000      -5.88540000      15.69440000
Pt      11.77080000      -1.96180000     -21.57980000
Pt      11.77080000      -3.92360000     -19.61800000
Pt      11.77080000      -1.96180000     -17.65620000
Pt      13.73260000      -3.92360000     -17.65620000
Pt      13.73260000      -1.96180000     -19.61800000
Pt      11.77080000      -3.92360000     -15.69440000
Pt      11.77080000      -1.96180000     -13.73260000
Pt      13.73260000      -3.92360000     -13.73260000
Pt      13.73260000      -1.96180000     -15.69440000
Pt      11.77080000      -3.92360000     -11.77080000
Pt      11.77080000      -1.96180000      -9.80900000
Pt      13.73260000      -3.92360000      -9.80900000
Pt      13.73260000      -1.96180000     -11.77080000
Pt      11.77080000      -3.92360000      -7.84720000
Pt      11.77080000      -1.96180000      -5.88540000
Pt      13.73260000      -3.92360000      -5.88540000
Pt      13.73260000      -1.96180000      -7.84720000
Pt      11.77080000      -3.92360000      -3.92360000
Pt      11.77080000      -1.96180000      -1.96180000
Pt      13.73260000      -3.92360000      -1.96180000
Pt      13.73260000      -1.96180000      -3.92360000
Pt      11.77080000      -3.92360000       0.00000000
Pt      11.77080000      -1.96180000       1.96180000
Pt      13.73260000      -3.92360000       1.96180000
Pt      13.73260000      -1.96180000       0.00000000
Pt      11.77080000      -3.92360000       3.92360000
Pt      11.77080000      -1.96180000       5.88540000
Pt      13.73260000      -3.92360000       5.88540000
Pt      13.73260000      -1.96180000       3.92360000
Pt      11.77080000      -3.92360000       7.84720000
Pt      11.77080000      -1.96180000       9.80900000
Pt      13.73260000      -3.92360000       9.80900000
Pt      13.73260000      -1.96180000       7.84720000
Pt      11.77080000      -3.92360000      11.77080000
Pt      11.77080000      -1.96180000      13.73260000
Pt      13.73260000      -3.92360000      13.73260000
Pt      13.73260000      -1.96180000      11.77080000
Pt      11.77080000      -3.92360000      15.69440000
Pt      11.77080000      -1.96180000      17.65620000
Pt      13.73260000      -3.92360000      17.65620000
Pt      13.73260000      -1.96180000      15.69440000
Pt      11.77080000      -3.92360000      19.61800000
Pt      11.77080000      -1.96180000      21.57980000
Pt      13.73260000      -1.96180000      19.61800000
Pt      11.77080000       1.96180000     -21.57980000
Pt      11.77080000       0.00000000     -19.61800000
Pt      11.77080000       1.96180000     -17.65620000
Pt      13.73260000       0.00000000     -17.65620000
Pt      13.73260000       1.96180000     -19.61800000
Pt      11.77080000       0.00000000     -15.69440000
Pt      11.77080000       1.96180000     -13.73260000
Pt      13.73260000       0.00000000     -13.73260000
Pt      13.73260000       1.96180000     -15.69440000
Pt      11.77080000       0.00000000     -11.77080000
Pt      11.77080000       1.96180000      -9.80900000
Pt      13.73260000       0.00000000      -9.80900000
Pt      13.73260000       1.96180000     -11.77080000
Pt      11.77080000       0.00000000      -7.84720000
Pt      11.77080000       1.96180000      -5.88540000
Pt      13.73260000       0.00000000      -5.88540000
Pt      13.73260000       1.96180000      -7.84720000
Pt      11.77080000       0.00000000      -3.92360000
Pt      11.77080000       1.96180000      -1.96180000
Pt      13.73260000       0.00000000      -1.96180000
Pt      13.73260000       1.96180000      -3.92360000
Pt      11.77080000       0.00000000       0.00000000
Pt      11.77080000       1.96180000       1.96180000
Pt      13.73260000       0.00000000       1.96180000
Pt      13.73260000       1.96180000       0.00000000
Pt      11.77080000       0.00000000       3.92360000
Pt      11.77080000       1.96180000       5.88540000
Pt      13.73260000       0.00000000       5.88540000
Pt      13.73260000       1.96180000       3.92360000
Pt      11.77080000       0.00000000       7.84720000
Pt      11.77080000       1.96180000       9.80900000
Pt      13.73260000       0.00000000       9.80900000
Pt      13.73260000       1.96180000       7.84720000
Pt      11.77080000       0.00000000      11.77080000
Pt      11.77080000       1.96180000      13.73260000
Pt      13.73260000       0.00000000      13.73260000
Pt      13.73260000       1.96180000      11.77080000
Pt      11.77080000       0.00000000      15.69440000
Pt      11.77080000       1.96180000      17.65620000
Pt      13.73260000       0.00000000      17.65620000
Pt      13.73260000       1.96180000      15.69440000
Pt      11.77080000       0.00000000      19.61800000
Pt      11.77080000       1.96180000      21.57980000
Pt      13.73260000       1.96180000      19.61800000
Pt      11.77080000       3.92360000     -19.61800000
Pt      11.77080000       5.88540000     -17.65620000
Pt      13.73260000       3.92360000     -17.65620000
Pt      11.77080000       3.92360000     -15.69440000
Pt      11.77080000       5.88540000     -13.73260000
Pt      13.73260000       3.92360000     -13.73260000
Pt      13.73260000       5.88540000     -15.69440000
Pt      11.77080000       3.92360000     -11.77080000
Pt      11.77080000       5.88540000      -9.80900000
Pt      13.73260000       3.92360000      -9.80900000
Pt      13.73260000       5.88540000     -11.77080000
Pt      11.77080000       3.92360000      -7.84720000
Pt      11.77080000       5.88540000      -5.88540000
Pt      13.73260000       3.92360000      -5.88540000
Pt      13.73260000       5.88540000      -7.84720000
Pt      11.77080000       3.92360000      -3.92360000
Pt      11.77080000       5.88540000      -1.96180000
Pt      13.73260000       3.92360000      -1.96180000
Pt      13.73260000       5.88540000      -3.92360000
Pt      11.77080000       3.92360000       0.00000000
Pt      11.77080000       5.88540000       1.96180000
Pt      13.73260000       3.92360000       1.96180000
Pt      13.73260000       5.88540000       0.00000000
Pt      11.77080000       3.92360000       3.92360000
Pt      11.77080000       5.88540000       5.88540000
Pt      13.73260000       3.92360000       5.88540000
Pt      13.73260000       5.88540000       3.92360000
Pt      11.77080000       3.92360000       7.84720000
Pt      11.77080000       5.88540000       9.80900000
Pt      13.73260000       3.92360000       9.80900000
Pt      13.73260000       5.88540000       7.84720000
Pt      11.77080000       3.92360000      11.77080000
Pt      11.77080000       5.88540000      13.73260000
Pt      13.73260000       3.92360000      13.73260000
Pt      13.73260000       5.88540000      11.77080000
Pt      11.77080000       3.92360000      15.69440000
Pt      11.77080000       5.88540000      17.65620000
Pt      13.73260000       3.92360000      17.65620000
Pt      13.73260000       5.88540000      15.69440000
Pt      11.77080000       3.92360000      19.61800000
Pt      11.77080000       7.84720000     -15.69440000
Pt      11.77080000       9.80900000     -13.73260000
Pt      13.73260000       7.84720000     -13.73260000
Pt      11.77080000       7.84720000     -11.77080000
Pt      11.77080000       9.80900000      -9.80900000
Pt      13.73260000       7.84720000      -9.80900000
Pt      13.73260000       9.80900000     -11.77080000
Pt      11.77080000       7.84720000      -7.84720000
Pt      11.77080000       9.80900000      -5.88540000
Pt      13.73260000       7.84720000      -5.88540000
Pt      13.73260000       9.80900000      -7.84720000
Pt      11.77080000       7.84720000      -3.92360000
Pt      11.77080000       9.80900000      -1.96180000
Pt      13.73260000       7.84720000      -1.96180000
Pt      13.73260000       9.80900000      -3.92360000
Pt      11.77080000       7.84720000       0.00000000
Pt      11.77080000       9.80900000       1.96180000
Pt      13.73260000       7.84720000       1.96180000
Pt      13.73260000       9.80900000       0.00000000
Pt      11.77080000       7.84720000       3.92360000
Pt      11.77080000       9.80900000       5.88540000
Pt      13.73260000       7.84720000       5.88540000
Pt      13.73260000       9.80900000       3.92360000
Pt      11.77080000       7.84720000       7.84720000
Pt      11.77080000       9.80900000       9.80900000
Pt      13.73260000       7.84720000       9.80900000
Pt      13.73260000       9.80900000       7.84720000
Pt      11.77080000       7.84720000      11.77080000
Pt      11.77080000       9.80900000      13.73260000
Pt      13.73260000       7.84720000      13.73260000
Pt      13.73260000       9.80900000      11.77080000
Pt      11.77080000       7.84720000      15.69440000
Pt      11.77080000      11.77080000     -11.77080000
Pt      11.77080000      13.73260000      -9.80900000
Pt      13.73260000      11.77080000      -9.80900000
Pt      11.77080000      11.77080000      -7.84720000
Pt      11.77080000      13.73260000      -5.88540000
Pt      13.73260000      11.77080000      -5.88540000
Pt      13.73260000      13.73260000      -7.84720000
Pt      11.77080000      11.77080000      -3.92360000
Pt      11.77080000      13.73260000      -1.96180000
Pt      13.73260000      11.77080000      -1.96180000
Pt      13.73260000      13.73260000      -3.92360000
Pt      11.77080000      11.77080000       0.00000000
Pt      11.77080000      13.73260000       1.96180000
Pt      13.73260000      11.77080000       1.96180000
Pt      13.73260000      13.73260000       0.00000000
Pt      11.77080000      11.77080000       3.92360000
Pt      11.77080000      13.73260000       5.88540000
Pt      13.73260000      11.77080000       5.88540000
Pt      13.73260000      13.73260000       3.92360000
Pt      11.77080000      11.77080000       7.84720000
Pt      11.77080000      13.73260000       9.80900000
Pt      13.73260000      11.77080000       9.80900000
Pt      13.73260000      13.73260000       7.84720000
Pt      11.77080000      11.77080000      11.77080000
Pt      11.77080000      15.69440000      -7.84720000
Pt      11.77080000      17.65620000      -5.88540000
Pt      13.73260000      15.69440000      -5.88540000
Pt      11.77080000      15.69440000      -3.92360000
Pt      11.77080000      17.65620000      -1.96180000
Pt      13.73260000      15.69440000      -1.96180000
Pt      13.73260000      17.65620000      -3.92360000
Pt      11.77080000      15.69440000       0.00000000
Pt      11.77080000      17.65620000       1.96180000
Pt      13.73260000      15.69440000       1.96180000
Pt      13.73260000      17.65620000       0.00000000
Pt      11.77080000      15.69440000       3.92360000
Pt      11.77080000      17.65620000       5.88540000
Pt      13.73260000      15.69440000       5.88540000
Pt      13.73260000      17.65620000       3.92360000
Pt      11.77080000      15.69440000       7.84720000
Pt      11.77080000      19.61800000      -3.92360000
Pt      11.77080000      21.57980000      -1.96180000
Pt      13.73260000      19.61800000      -1.96180000
Pt      11.77080000      19.61800000       0.00000000
Pt      11.77080000      21.57980000       1.96180000
Pt      13.73260000      19.61800000       1.96180000
Pt      11.77080000      19.61800000       3.92360000
Pt      15.69440000     -17.65620000      -1.96180000
Pt      15.69440000     -17.65620000       1.96180000
Pt      15.69440000     -13.73260000      -5.88540000
Pt      15.69440000     -15.69440000      -3.92360000
Pt      15.69440000     -13.73260000      -1.96180000
Pt      17.65620000     -15.69440000      -1.96180000
Pt      17.65620000     -13.73260000      -3.92360000
Pt      15.69440000     -15.69440000       0.00000000
Pt      15.69440000     -13.73260000       1.96180000
Pt      17.65620000     -15.69440000       1.96180000
Pt      17.65620000     -13.73260000       0.00000000
Pt      15.69440000     -15.69440000       3.92360000
Pt      15.69440000     -13.73260000       5.88540000
Pt      17.65620000     -13.73260000       3.92360000
Pt      15.69440000      -9.80900000      -9.80900000
Pt      15.69440000     -11.77080000      -7.84720000
Pt      15.69440000      -9.80900000      -5.88540000
Pt      17.65620000     -11.77080000      -5.88540000
Pt      17.65620000      -9.80900000      -7.84720000
Pt      15.69440000     -11.77080000      -3.92360000
Pt      15.69440000      -9.80900000      -1.96180000
Pt      17.65620000     -11.77080000      -1.96180000
Pt      17.65620000      -9.80900000      -3.92360000
Pt      15.69440000     -11.77080000       0.00000000
Pt      15.69440000      -9.80900000       1.96180000
Pt      17.65620000     -11.77080000       1.96180000
Pt      17.65620000      -9.80900000       0.00000000
Pt      15.69440000     -11.77080000       3.92360000
Pt      15.69440000      -9.80900000       5.88540000
Pt      17.65620000     -11.77080000       5.88540000
Pt      17.65620000      -9.80900000       3.92360000
Pt      15.69440000     -11.77080000       7.84720000
Pt      15.69440000      -9.80900000       9.80900000
Pt      17.65620000      -9.80900000       7.84720000
Pt      15.69440000      -5.88540000     -13.73260000
Pt      15.69440000      -7.84720000     -11.77080000
Pt      15.69440000      -5.88540000      -9.80900000
Pt      17.65620000      -7.84720000      -9.80900000
Pt      17.65620000      -5.88540000     -11.77080000
Pt      15.69440000      -7.84720000      -7.84720000
Pt      15.69440000      -5.88540000      -5.88540000
Pt      17.65620000      -7.84720000      -5.88540000
Pt      17.65620000      -5.88540000      -7.84720000
Pt      15.69440000      -7.84720000      -3.92360000
Pt      15.69440000      -5.88540000      -1.96180000
Pt      17.65620000      -7.84720000      -1.96180000
Pt      17.65620000      -5.88540000      -3.92360000
Pt      15.69440000      -7.84720000       0.00000000
Pt      15.69440000      -5.88540000       1.96180000
Pt      17.65620000      -7.84720000       1.96180000
Pt      17.65620000      -5.88540000       0.00000000
Pt      15.69440000      -7.84720000       3.92360000
Pt      15.69440000      -5.88540000       5.88540000
Pt      17.65620000      -7.84720000       5.88540000
Pt      17.65620000      -5.88540000       3.92360000
Pt      15.69440000      -7.84720000       7.84720000
Pt      15.69440000      -5.88540000       9.80900000
Pt      17.65620000      -7.84720000       9.80900000
Pt      17.65620000      -5.88540000       7.84720000
Pt      15.69440000      -7.84720000      11.77080000
Pt      15.69440000      -5.88540000      13.73260000
Pt      17.65620000      -5.88540000      11.77080000
Pt      15.69440000      -1.96180000     -17.65620000
Pt      15.69440000      -3.92360000     -15.69440000
Pt      15.69440000      -1.96180000     -13.73260000
Pt      17.65620000      -3.92360000     -13.73260000
Pt      17.65620000      -1.96180000     -15.69440000
Pt      15.69440000      -3.92360000     -11.77080000
Pt      15.69440000      -1.96180000      -9.80900000
Pt      17.65620000      -3.92360000      -9.80900000
Pt      17.65620000      -1.96180000     -11.77080000
Pt      15.69440000      -3.92360000      -7.84720000
Pt      15.69440000      -1.96180000      -5.88540000
Pt      17.65620000      -3.92360000      -5.88540000
Pt      17.65620000      -1.96180000      -7.84720000
Pt      15.69440000      -3.92360000      -3.92360000
Pt      15.69440000      -1.96180000      -1.96180000
Pt      17.65620000      -3.92360000      -1.96180000
Pt      17.65620000      -1.96180000      -3.92360000
Pt      15.69440000      -3.92360000       0.00000000
Pt      15.69440000      -1.96180000       1.96180000
Pt      17.65620000      -3.92360000       1.96180000
Pt      17.65620000      -1.96180000       0.00000000
Pt      15.69440000      -3.92360000       3.92360000
Pt      15.69440000      -1.96180000       5.88540000
Pt      17.65620000      -3.92360000       5.88540000
Pt      17.65620000      -1.96180000       3.92360000
Pt      15.69440000      -3.92360000       7.84720000
Pt      15.69440000      -1.96180000       9.80900000
Pt      17.65620000      -3.92360000       9.80900000
Pt      17.65620000      -1.96180000       7.84720000
Pt      15.69440000      -3.92360000      11.77080000
Pt      15.69440000      -1.96180000      13.73260000
Pt      17.65620000      -3.92360000      13.73260000
Pt      17.65620000      -1.96180000      11.77080000
Pt      15.69440000      -3.92360000      15.69440000
Pt      15.69440000      -1.96180000      17.65620000
Pt      17.65620000      -1.96180000      15.69440000
Pt      15.69440000       1.96180000     -17.65620000
Pt      15.69440000       0.00000000     -15.69440000
Pt      15.69440000       1.96180000     -13.73260000
Pt      17.65620000       0.00000000     -13.73260000
Pt      17.65620000       1.96180000     -15.69440000
Pt      15.69440000       0.00000000     -11.77080000
Pt      15.69440000       1.96180000      -9.80900000
Pt      17.65620000       0.00000000      -9.80900000
Pt      17.65620000       1.96180000     -11.77080000
Pt      15.69440000       0.00000000      -7.84720000
Pt      15.69440000       1.96180000      -5.88540000
Pt      17.65620000       0.00000000      -5.88540000
Pt      17.65620000       1.96180000      -7.84720000
Pt      15.69440000       0.00000000      -3.92360000
Pt      15.69440000       1.96180000      -1.96180000
Pt      17.65620000       0.00000000      -1.96180000
Pt      17.65620000       1.96180000      -3.92360000
Pt      15.69440000       0.00000000       0.00000000
Pt      15.69440000       1.96180000       1.96180000
Pt      17.65620000       0.00000000       1.96180000
Pt      17.65620000       1.96180000       0.00000000
Pt      15.69440000       0.00000000       3.92360000
Pt      15.69440000       1.96180000       5.88540000
Pt      17.65620000       0.00000000       5.88540000
Pt      17.65620000       1.96180000       3.92360000
Pt      15.69440000       0.00000000       7.84720000
Pt      15.69440000       1.96180000       9.80900000
Pt      17.65620000       0.00000000       9.80900000
Pt      17.65620000       1.96180000       7.84720000
Pt      15.69440000       0.00000000      11.77080000
Pt      15.69440000       1.96180000      13.73260000
Pt      17.65620000       0.00000000      13.73260000
Pt      17.65620000       1.96180000      11.77080000
Pt      15.69440000       0.00000000      15.69440000
Pt      15.69440000       1.96180000      17.65620000
Pt      17.65620000       1.96180000      15.69440000
Pt      15.69440000       3.92360000     -15.69440000
Pt      15.69440000       5.88540000     -13.73260000
Pt      17.65620000       3.92360000     -13.73260000
Pt      15.69440000       3.92360000     -11.77080000
Pt      15.69440000       5.88540000      -9.80900000
Pt      17.65620000       3.92360000      -9.80900000
Pt      17.65620000       5.88540000     -11.77080000
Pt      15.69440000       3.92360000      -7.84720000
Pt      15.69440000       5.88540000      -5.88540000
Pt      17.65620000       3.92360000      -5.88540000
Pt      17.65620000       5.88540000      -7.84720000
Pt      15.69440000       3.92360000      -3.92360000
Pt      15.69440000       5.88540000      -1.96180000
Pt      17.65620000       3.92360000      -1.96180000
Pt      17.65620000       5.88540000      -3.92360000
Pt      15.69440000       3.92360000       0.00000000
Pt      15.69440000       5.88540000       1.96180000
Pt      17.65620000       3.92360000       1.96180000
Pt      17.65620000       5.88540000       0.00000000
Pt      15.69440000       3.92360000       3.92360000
Pt      15.69440000       5.88540000       5.88540000
Pt      17.65620000       3.92360000       5.88540000
Pt      17.65620000       5.88540000       3.92360000
Pt      15.69440000       3.92360000       7.84720000
Pt      15.69440000       5.88540000       9.80900000
Pt      17.65620000       3.92360000       9.80900000
Pt      17.65620000       5.88540000       7.84720000
Pt      15.69440000       3.92360000      11.77080000
Pt      15.69440000       5.88540000      13.73260000
Pt      17.65620000       3.92360000      13.73260000
Pt      17.65620000       5.88540000      11.77080000
Pt      15.69440000       3.92360000      15.69440000
Pt      15.69440000       7.84720000     -11.77080000
Pt      15.69440000       9.80900000      -9.80900000
Pt      17.65620000       7.84720000      -9.80900000
Pt      15.69440000       7.84720000      -7.84720000
Pt      15.69440000       9.80900000      -5.88540000
Pt      17.65620000       7.84720000      -5.88540000
Pt      17.65620000       9.80900000      -7.84720000
Pt      15.69440000       7.84720000      -3.92360000
Pt      15.69440000       9.80900000      -1.96180000
Pt      17.65620000       7.84720000      -1.96180000
Pt      17.65620000       9.80900000      -3.92360000
Pt      15.69440000       7.84720000       0.00000000
Pt      15.69440000       9.80900000       1.96180000
Pt      17.65620000       7.84720000       1.96180000
Pt      17.65620000       9.80900000       0.00000000
Pt      15.69440000       7.84720000       3.92360000
Pt      15.69440000       9.80900000       5.88540000
Pt      17.65620000       7.84720000       5.88540000
Pt      17.65620000       9.80900000       3.92360000
Pt      15.69440000       7.84720000       7.84720000
Pt      15.69440000       9.80900000       9.80900000
Pt      17.65620000       7.84720000       9.80900000
Pt      17.65620000       9.80900000       7.84720000
Pt      15.69440000       7.84720000      11.77080000
Pt      15.69440000      11.77080000      -7.84720000
Pt      15.69440000      13.73260000      -5.88540000
Pt      17.65620000      11.77080000      -5.88540000
Pt      15.69440000      11.77080000      -3.92360000
Pt      15.69440000      13.73260000      -1.96180000
Pt      17.65620000      11.77080000      -1.96180000
Pt      17.65620000      13.73260000      -3.92360000
Pt      15.69440000      11.77080000       0.00000000
Pt      15.69440000      13.73260000       1.96180000
Pt      17.65620000      11.77080000       1.96180000
Pt      17.65620000      13.73260000       0.00000000
Pt      15.69440000      11.77080000       3.92360000
Pt      15.69440000      13.73260000       5.88540000
Pt      17.65620000      11.77080000       5.88540000
Pt      17.65620000      13.73260000       3.92360000
Pt      15.69440000      11.77080000       7.84720000
Pt      15.69440000      15.69440000      -3.92360000
Pt      15.69440000      17.65620000      -1.96180000
Pt      17.65620000      15.69440000      -1.96180000
Pt      15.69440000      15.69440000       0.00000000
Pt      15.69440000      17.65620000       1.96180000
Pt      17.65620000      15.69440000       1.96180000
Pt      15.69440000      15.69440000       3.92360000
Pt      19.61800000     -13.73260000      -1.96180000
Pt      19.61800000     -13.73260000       1.96180000
Pt      19.61800000      -9.80900000      -5.88540000
Pt      19.61800000     -11.77080000      -3.92360000
Pt      19.61800000      -9.80900000      -1.96180000
Pt      21.57980000     -11.77080000      -1.96180000
Pt      21.57980000      -9.80900000      -3.92360000
Pt      19.61800000     -11.77080000       0.00000000
Pt      19.61800000      -9.80900000       1.96180000
Pt      21.57980000     -11.77080000       1.96180000
Pt      21.57980000      -9.80900000       0.00000000
Pt      19.61800000     -11.77080000       3.92360000
Pt      19.61800000      -9.80900000       5.88540000
Pt      21.57980000      -9.80900000       3.92360000
Pt      19.61800000      -5.88540000      -9.80900000
Pt      19.61800000      -7.84720000      -7.84720000
Pt      19.61800000      -5.88540000      -5.88540000
Pt      21.57980000      -7.84720000      -5.88540000
Pt      21.57980000      -5.88540000      -7.84720000
Pt      19.61800000      -7.84720000      -3.92360000
Pt      19.61800000      -5.88540000      -1.96180000
Pt      21.57980000      -7.84720000      -1.96180000
Pt      21.57980000      -5.88540000      -3.92360000
Pt      19.61800000      -7.84720000       0.00000000
Pt      19.61800000      -5.88540000       1.96180000
Pt      21.57980000      -7.84720000       1.96180000
Pt      21.57980000      -5.88540000       0.00000000
Pt      19.61800000      -7.84720000       3.92360000
Pt      19.61800000      -5.88540000       5.88540000
Pt      21.57980000      -7.84720000       5.88540000
Pt      21.57980000      -5.88540000       3.92360000
Pt      19.61800000      -7.84720000       7.84720000
Pt      19.61800000      -5.88540000       9.80900000
Pt      21.57980000      -5.88540000       7.84720000
Pt      19.61800000      -1.96180000     -13.73260000
Pt      19.61800000      -3.92360000     -11.77080000
Pt      19.61800000      -1.96180000      -9.80900000
Pt      21.57980000      -3.92360000      -9.80900000
Pt      21.57980000      -1.96180000     -11.77080000
Pt      19.61800000      -3.92360000      -7.84720000
Pt      19.61800000      -1.96180000      -5.88540000
Pt      21.57980000      -3.92360000      -5.88540000
Pt      21.57980000      -1.96180000      -7.84720000
Pt      19.61800000      -3.92360000      -3.92360000
Pt      19.61800000      -1.96180000      -1.96180000
Pt      21.57980000      -3.92360000      -1.96180000
Pt      21.57980000      -1.96180000      -3.92360000
Pt      19.61800000      -3.92360000       0.00000000
Pt      19.61800000      -1.96180000       1.96180000
Pt      21.57980000      -3.92360000       1.96180000
Pt      21.57980000      -1.96180000       0.00000000
Pt      19.61800000      -3.92360000       3.92360000
Pt      19.61800000      -1.96180000       5.88540000
Pt      21.57980000      -3.92360000       5.88540000
Pt      21.57980000      -1.96180000       3.92360000
Pt      19.61800000      -3.92360000       7.84720000
Pt      19.61800000      -1.96180000       9.80900000
Pt      21.57980000      -3.92360000       9.80900000
Pt      21.57980000      -1.96180000       7.84720000
Pt      19.61800000      -3.92360000      11.77080000
Pt      19.61800000      -1.96180000      13.73260000
Pt      21.57980000      -1.96180000      11.77080000
Pt      19.61800000       1.96180000     -13.73260000
Pt      19.61800000       0.00000000     -11.77080000
Pt      19.61800000       1.96180000      -9.80900000
Pt      21.57980000       0.00000000      -9.80900000
Pt      21.57980000       1.96180000     -11.77080000
Pt      19.61800000       0.00000000      -7.84720000
Pt      19.61800000       1.96180000      -5.88540000
Pt      21.57980000       0.00000000      -5.88540000
Pt      21.57980000       1.96180000      -7.84720000
Pt      19.61800000       0.00000000      -3.92360000
Pt      19.61800000       1.96180000      -1.96180000
Pt      21.57980000       0.00000000      -1.96180000
Pt      21.57980000       1.96180000      -3.92360000
Pt      19.61800000       0.00000000       0.00000000
Pt      19.61800000       1.96180000       1.96180000
Pt      21.57980000       0.00000000       1.96180000
Pt      21.57980000       1.96180000       0.00000000
Pt      19.61800000       0.00000000       3.92360000
Pt      19.61800000       1.96180000       5.88540000
Pt      21.57980000       0.00000000       5.88540000
Pt      21.57980000       1.96180000       3.92360000
Pt      19.61800000       0.00000000       7.84720000
Pt      19.61800000       1.96180000       9.80900000
Pt      21.57980000       0.00000000       9.80900000
Pt      21.57980000       1.96180000       7.84720000
Pt      19.61800000       0.00000000      11.77080000
Pt      19.61800000       1.96180000      13.73260000
Pt      21.57980000       1.96180000      11.77080000
Pt      19.61800000       3.92360000     -11.77080000
Pt      19.61800000       5.88540000      -9.80900000
Pt      21.57980000       3.92360000      -9.80900000
Pt      19.61800000       3.92360000      -7.84720000
Pt      19.61800000       5.88540000      -5.88540000
Pt      21.57980000       3.92360000      -5.88540000
Pt      21.57980000       5.88540000      -7.84720000
Pt      19.61800000       3.92360000      -3.92360000
Pt      19.61800000       5.88540000      -1.96180000
Pt      21.57980000       3.92360000      -1.96180000
Pt      21.57980000       5.88540000      -3.92360000
Pt      19.61800000       3.92360000       0.00000000
Pt      19.61800000       5.88540000       1.96180000
Pt      21.57980000       3.92360000       1.96180000
Pt      21.57980000       5.88540000       0.00000000
Pt      19.61800000       3.92360000       3.92360000
Pt      19.61800000       5.88540000       5.88540000
Pt      21.57980000       3.92360000       5.88540000
Pt      21.57980000       5.88540000       3.92360000
Pt      19.61800000       3.92360000       7.84720000
Pt      19.61800000       5.88540000       9.80900000
Pt      21.57980000       3.92360000       9.80900000
Pt      21.57980000       5.88540000       7.84720000
Pt      19.61800000       3.92360000      11.77080000
Pt      19.61800000       7.84720000      -7.84720000
Pt      19.61800000       9.80900000      -5.88540000
Pt      21.57980000       7.84720000      -5.88540000
Pt      19.61800000       7.84720000      -3.92360000
Pt      19.61800000       9.80900000      -1.96180000
Pt      21.57980000       7.84720000      -1.96180000
Pt      21.57980000       9.80900000      -3.92360000
Pt      19.61800000       7.84720000       0.00000000
Pt      19.61800000       9.80900000       1.96180000
Pt      21.57980000       7.84720000       1.96180000
Pt      21.57980000       9.80900000       0.00000000
Pt      19.61800000       7.84720000       3.92360000
Pt      19.61800000       9.80900000       5.88540000
Pt      21.57980000       7.84720000       5.88540000
Pt      21.57980000       9.80900000       3.92360000
Pt      19.61800000       7.84720000       7.84720000
Pt      19.61800000      11.77080000      -3.92360000
Pt      19.61800000      13.73260000      -1.96180000
Pt      21.57980000      11.77080000      -1.96180000
Pt      19.61800000      11.77080000       0.00000000
Pt      19.61800000      13.73260000       1.96180000
Pt      21.57980000      11.77080000       1.96180000
Pt      19.61800000      11.77080000       3.92360000
Pt      23.54160000      -9.80900000      -1.96180000
Pt      23.54160000      -9.80900000       1.96180000
Pt      23.54160000      -5.88540000      -5.88540000
Pt      23.54160000      -7.84720000      -3.92360000
Pt      23.54160000      -5.88540000      -1.96180000
Pt      23.54160000      -7.84720000       0.00000000
Pt      23.54160000      -5.88540000       1.96180000
Pt      25.50340000      -5.88540000       0.00000000
Pt      23.54160000      -7.84720000       3.92360000
Pt      23.54160000      -5.88540000       5.88540000
Pt      23.54160000      -1.96180000      -9.80900000
Pt      23.54160000      -3.92360000      -7.84720000
Pt      23.54160000      -1.96180000      -5.88540000
Pt      23.54160000      -3.92360000      -3.92360000
Pt      23.54160000      -1.96180000      -1.96180000
Pt      25.50340000      -3.92360000      -1.96180000
Pt      25.50340000      -1.96180000      -3.92360000
Pt      23.54160000      -3.92360000       0.00000000
Pt      23.54160000      -1.96180000       1.96180000
Pt      25.50340000      -3.92360000       1.96180000
Pt      25.50340000      -1.96180000       0.00000000
Pt      23.54160000      -3.92360000       3.92360000
Pt      23.54160000      -1.96180000       5.88540000
Pt      25.50340000      -1.96180000       3.92360000
Pt      23.54160000      -3.92360000       7.84720000
Pt      23.54160000      -1.96180000       9.80900000
Pt      23.54160000       1.96180000      -9.80900000
Pt      23.54160000       0.00000000      -7.84720000
Pt      23.54160000       1.96180000      -5.88540000
Pt      25.50340000       0.00000000      -5.88540000
Pt      23.54160000       0.00000000      -3.92360000
Pt      23.54160000       1.96180000      -1.96180000
Pt      25.50340000       0.00000000      -1.96180000
Pt      25.50340000       1.96180000      -3.92360000
Pt      23.54160000       0.00000000       0.00000000
Pt      23.54160000       1.96180000       1.96180000
Pt      25.50340000       0.00000000       1.96180000
Pt      25.50340000       1.96180000       0.00000000
Pt      23.54160000       0.00000000       3.92360000
Pt      23.54160000       1.96180000       5.88540000
Pt      25.50340000       0.00000000       5.88540000
Pt      25.50340000       1.96180000       3.92360000
Pt      23.54160000       0.00000000       7.84720000
Pt      23.54160000       1.96180000       9.80900000
Pt      23.54160000       3.92360000      -7.84720000
Pt      23.54160000       5.88540000      -5.88540000
Pt      23.54160000       3.92360000      -3.92360000
Pt      23.54160000       5.88540000      -1.96180000
Pt      25.50340000       3.92360000      -1.96180000
Pt      23.54160000       3.92360000       0.00000000
Pt      23.54160000       5.88540000       1.96180000
Pt      25.50340000       3.92360000       1.96180000
Pt      25.50340000       5.88540000       0.00000000
Pt      23.54160000       3.92360000       3.92360000
Pt      23.54160000       5.88540000       5.88540000
Pt      23.54160000       3.92360000       7.84720000
Pt      23.54160000       7.84720000      -3.92360000
Pt      23.54160000       9.80900000      -1.96180000
Pt      23.54160000       7.84720000       0.00000000
Pt      23.54160000       9.80900000       1.96180000
Pt      23.54160000       7.84720000       3.92360000
