6077
Lattice="149.5306167643286 0.0 0.0 0.0 152.61921259771518 0.0 0.0 0.0 149.5306167643286" Properties=species:S:1:pos:R:3 pbc="F F F"
Pt      60.89328755      76.30960630      52.57007505
Pt      59.50608547      78.27140630      53.95727713
Pt      58.11888338      80.23320630      55.34447922
Pt      59.50608547      74.34780630      53.95727713
Pt      58.11888338      76.30960630      55.34447922
Pt      58.11888338      72.38600630      55.34447922
Pt      56.73168130      82.19500630      56.73168130
Pt      56.73168130      78.27140630      56.73168130
Pt      55.34447922      80.23320630      58.11888338
Pt      56.73168130      74.34780630      56.73168130
Pt      55.34447922      76.30960630      58.11888338
Pt      56.73168130      70.42420630      56.73168130
Pt      55.34447922      72.38600630      58.11888338
Pt      53.95727713      78.27140630      59.50608547
Pt      53.95727713      74.34780630      59.50608547
Pt      52.57007505      76.30960630      60.89328755
Pt      65.05489380      78.27140630      51.18287297
Pt      67.82929797      78.27140630      51.18287297
Pt      66.44209588      80.23320630      52.57007505
Pt      65.05489380      74.34780630      51.18287297
Pt      67.82929797      74.34780630      51.18287297
Pt      66.44209588      76.30960630      52.57007505
Pt      66.44209588      72.38600630      52.57007505
Pt      62.28048963      82.19500630      53.95727713
Pt      65.05489380      82.19500630      53.95727713
Pt      63.66769172      84.15680630      55.34447922
Pt      63.66769172      80.23320630      52.57007505
Pt      62.28048963      78.27140630      53.95727713
Pt      65.05489380      78.27140630      53.95727713
Pt      63.66769172      80.23320630      55.34447922
Pt      63.66769172      76.30960630      52.57007505
Pt      62.28048963      74.34780630      53.95727713
Pt      65.05489380      74.34780630      53.95727713
Pt      63.66769172      76.30960630      55.34447922
Pt      63.66769172      72.38600630      52.57007505
Pt      62.28048963      70.42420630      53.95727713
Pt      65.05489380      70.42420630      53.95727713
Pt      63.66769172      72.38600630      55.34447922
Pt      63.66769172      68.46240630      55.34447922
Pt      59.50608547      86.11860630      56.73168130
Pt      62.28048963      86.11860630      56.73168130
Pt      60.89328755      88.08040630      58.11888338
Pt      60.89328755      84.15680630      55.34447922
Pt      59.50608547      82.19500630      56.73168130
Pt      62.28048963      82.19500630      56.73168130
Pt      60.89328755      84.15680630      58.11888338
Pt      60.89328755      80.23320630      55.34447922
Pt      59.50608547      78.27140630      56.73168130
Pt      62.28048963      78.27140630      56.73168130
Pt      60.89328755      80.23320630      58.11888338
Pt      60.89328755      76.30960630      55.34447922
Pt      59.50608547      74.34780630      56.73168130
Pt      62.28048963      74.34780630      56.73168130
Pt      60.89328755      76.30960630      58.11888338
Pt      60.89328755      72.38600630      55.34447922
Pt      59.50608547      70.42420630      56.73168130
Pt      62.28048963      70.42420630      56.73168130
Pt      60.89328755      72.38600630      58.11888338
Pt      60.89328755      68.46240630      55.34447922
Pt      59.50608547      66.50060630      56.73168130
Pt      62.28048963      66.50060630      56.73168130
Pt      60.89328755      68.46240630      58.11888338
Pt      60.89328755      64.53880630      58.11888338
Pt      56.73168130      86.11860630      59.50608547
Pt      59.50608547      86.11860630      59.50608547
Pt      58.11888338      88.08040630      60.89328755
Pt      58.11888338      84.15680630      58.11888338
Pt      56.73168130      82.19500630      59.50608547
Pt      59.50608547      82.19500630      59.50608547
Pt      58.11888338      84.15680630      60.89328755
Pt      58.11888338      80.23320630      58.11888338
Pt      56.73168130      78.27140630      59.50608547
Pt      59.50608547      78.27140630      59.50608547
Pt      58.11888338      80.23320630      60.89328755
Pt      58.11888338      76.30960630      58.11888338
Pt      56.73168130      74.34780630      59.50608547
Pt      59.50608547      74.34780630      59.50608547
Pt      58.11888338      76.30960630      60.89328755
Pt      58.11888338      72.38600630      58.11888338
Pt      56.73168130      70.42420630      59.50608547
Pt      59.50608547      70.42420630      59.50608547
Pt      58.11888338      72.38600630      60.89328755
Pt      58.11888338      68.46240630      58.11888338
Pt      56.73168130      66.50060630      59.50608547
Pt      59.50608547      66.50060630      59.50608547
Pt      58.11888338      68.46240630      60.89328755
Pt      58.11888338      64.53880630      60.89328755
Pt      56.73168130      86.11860630      62.28048963
Pt      55.34447922      84.15680630      60.89328755
Pt      53.95727713      82.19500630      62.28048963
Pt      56.73168130      82.19500630      62.28048963
Pt      55.34447922      84.15680630      63.66769172
Pt      55.34447922      80.23320630      60.89328755
Pt      53.95727713      78.27140630      62.28048963
Pt      56.73168130      78.27140630      62.28048963
Pt      55.34447922      80.23320630      63.66769172
Pt      55.34447922      76.30960630      60.89328755
Pt      53.95727713      74.34780630      62.28048963
Pt      56.73168130      74.34780630      62.28048963
Pt      55.34447922      76.30960630      63.66769172
Pt      55.34447922      72.38600630      60.89328755
Pt      53.95727713      70.42420630      62.28048963
Pt      56.73168130      70.42420630      62.28048963
Pt      55.34447922      72.38600630      63.66769172
Pt      55.34447922      68.46240630      60.89328755
Pt      56.73168130      66.50060630      62.28048963
Pt      55.34447922      68.46240630      63.66769172
Pt      53.95727713      82.19500630      65.05489380
Pt      52.57007505      80.23320630      63.66769172
Pt      51.18287297      78.27140630      65.05489380
Pt      53.95727713      78.27140630      65.05489380
Pt      52.57007505      80.23320630      66.44209588
Pt      52.57007505      76.30960630      63.66769172
Pt      51.18287297      74.34780630      65.05489380
Pt      53.95727713      74.34780630      65.05489380
Pt      52.57007505      76.30960630      66.44209588
Pt      52.57007505      72.38600630      63.66769172
Pt      53.95727713      70.42420630      65.05489380
Pt      52.57007505      72.38600630      66.44209588
Pt      51.18287297      78.27140630      67.82929797
Pt      51.18287297      74.34780630      67.82929797
Pt      70.60370213      78.27140630      51.18287297
Pt      73.37810630      78.27140630      51.18287297
Pt      71.99090422      80.23320630      52.57007505
Pt      70.60370213      74.34780630      51.18287297
Pt      73.37810630      74.34780630      51.18287297
Pt      71.99090422      76.30960630      52.57007505
Pt      71.99090422      72.38600630      52.57007505
Pt      67.82929797      82.19500630      53.95727713
Pt      70.60370213      82.19500630      53.95727713
Pt      69.21650005      84.15680630      55.34447922
Pt      69.21650005      80.23320630      52.57007505
Pt      67.82929797      78.27140630      53.95727713
Pt      70.60370213      78.27140630      53.95727713
Pt      69.21650005      80.23320630      55.34447922
Pt      69.21650005      76.30960630      52.57007505
Pt      67.82929797      74.34780630      53.95727713
Pt      70.60370213      74.34780630      53.95727713
Pt      69.21650005      76.30960630      55.34447922
Pt      69.21650005      72.38600630      52.57007505
Pt      67.82929797      70.42420630      53.95727713
Pt      70.60370213      70.42420630      53.95727713
Pt      69.21650005      72.38600630      55.34447922
Pt      69.21650005      68.46240630      55.34447922
Pt      65.05489380      86.11860630      56.73168130
Pt      67.82929797      86.11860630      56.73168130
Pt      66.44209588      88.08040630      58.11888338
Pt      66.44209588      84.15680630      55.34447922
Pt      65.05489380      82.19500630      56.73168130
Pt      67.82929797      82.19500630      56.73168130
Pt      66.44209588      84.15680630      58.11888338
Pt      66.44209588      80.23320630      55.34447922
Pt      65.05489380      78.27140630      56.73168130
Pt      67.82929797      78.27140630      56.73168130
Pt      66.44209588      80.23320630      58.11888338
Pt      66.44209588      76.30960630      55.34447922
Pt      65.05489380      74.34780630      56.73168130
Pt      67.82929797      74.34780630      56.73168130
Pt      66.44209588      76.30960630      58.11888338
Pt      66.44209588      72.38600630      55.34447922
Pt      65.05489380      70.42420630      56.73168130
Pt      67.82929797      70.42420630      56.73168130
Pt      66.44209588      72.38600630      58.11888338
Pt      66.44209588      68.46240630      55.34447922
Pt      65.05489380      66.50060630      56.73168130
Pt      67.82929797      66.50060630      56.73168130
Pt      66.44209588      68.46240630      58.11888338
Pt      66.44209588      64.53880630      58.11888338
Pt      62.28048963      90.04220630      59.50608547
Pt      65.05489380      90.04220630      59.50608547
Pt      63.66769172      92.00400630      60.89328755
Pt      63.66769172      88.08040630      58.11888338
Pt      62.28048963      86.11860630      59.50608547
Pt      65.05489380      86.11860630      59.50608547
Pt      63.66769172      88.08040630      60.89328755
Pt      63.66769172      84.15680630      58.11888338
Pt      62.28048963      82.19500630      59.50608547
Pt      65.05489380      82.19500630      59.50608547
Pt      63.66769172      84.15680630      60.89328755
Pt      63.66769172      80.23320630      58.11888338
Pt      62.28048963      78.27140630      59.50608547
Pt      65.05489380      78.27140630      59.50608547
Pt      63.66769172      80.23320630      60.89328755
Pt      63.66769172      76.30960630      58.11888338
Pt      62.28048963      74.34780630      59.50608547
Pt      65.05489380      74.34780630      59.50608547
Pt      63.66769172      76.30960630      60.89328755
Pt      63.66769172      72.38600630      58.11888338
Pt      62.28048963      70.42420630      59.50608547
Pt      65.05489380      70.42420630      59.50608547
Pt      63.66769172      72.38600630      60.89328755
Pt      63.66769172      68.46240630      58.11888338
Pt      62.28048963      66.50060630      59.50608547
Pt      65.05489380      66.50060630      59.50608547
Pt      63.66769172      68.46240630      60.89328755
Pt      63.66769172      64.53880630      58.11888338
Pt      62.28048963      62.57700630      59.50608547
Pt      65.05489380      62.57700630      59.50608547
Pt      63.66769172      64.53880630      60.89328755
Pt      63.66769172      60.61520630      60.89328755
Pt      59.50608547      90.04220630      62.28048963
Pt      62.28048963      90.04220630      62.28048963
Pt      60.89328755      92.00400630      63.66769172
Pt      60.89328755      88.08040630      60.89328755
Pt      59.50608547      86.11860630      62.28048963
Pt      62.28048963      86.11860630      62.28048963
Pt      60.89328755      88.08040630      63.66769172
Pt      60.89328755      84.15680630      60.89328755
Pt      59.50608547      82.19500630      62.28048963
Pt      62.28048963      82.19500630      62.28048963
Pt      60.89328755      84.15680630      63.66769172
Pt      60.89328755      80.23320630      60.89328755
Pt      59.50608547      78.27140630      62.28048963
Pt      62.28048963      78.27140630      62.28048963
Pt      60.89328755      80.23320630      63.66769172
Pt      60.89328755      76.30960630      60.89328755
Pt      59.50608547      74.34780630      62.28048963
Pt      62.28048963      74.34780630      62.28048963
Pt      60.89328755      76.30960630      63.66769172
Pt      60.89328755      72.38600630      60.89328755
Pt      59.50608547      70.42420630      62.28048963
Pt      62.28048963      70.42420630      62.28048963
Pt      60.89328755      72.38600630      63.66769172
Pt      60.89328755      68.46240630      60.89328755
Pt      59.50608547      66.50060630      62.28048963
Pt      62.28048963      66.50060630      62.28048963
Pt      60.89328755      68.46240630      63.66769172
Pt      60.89328755      64.53880630      60.89328755
Pt      59.50608547      62.57700630      62.28048963
Pt      62.28048963      62.57700630      62.28048963
Pt      60.89328755      64.53880630      63.66769172
Pt      60.89328755      60.61520630      63.66769172
Pt      59.50608547      90.04220630      65.05489380
Pt      58.11888338      88.08040630      63.66769172
Pt      56.73168130      86.11860630      65.05489380
Pt      59.50608547      86.11860630      65.05489380
Pt      58.11888338      88.08040630      66.44209588
Pt      58.11888338      84.15680630      63.66769172
Pt      56.73168130      82.19500630      65.05489380
Pt      59.50608547      82.19500630      65.05489380
Pt      58.11888338      84.15680630      66.44209588
Pt      58.11888338      80.23320630      63.66769172
Pt      56.73168130      78.27140630      65.05489380
Pt      59.50608547      78.27140630      65.05489380
Pt      58.11888338      80.23320630      66.44209588
Pt      58.11888338      76.30960630      63.66769172
Pt      56.73168130      74.34780630      65.05489380
Pt      59.50608547      74.34780630      65.05489380
Pt      58.11888338      76.30960630      66.44209588
Pt      58.11888338      72.38600630      63.66769172
Pt      56.73168130      70.42420630      65.05489380
Pt      59.50608547      70.42420630      65.05489380
Pt      58.11888338      72.38600630      66.44209588
Pt      58.11888338      68.46240630      63.66769172
Pt      56.73168130      66.50060630      65.05489380
Pt      59.50608547      66.50060630      65.05489380
Pt      58.11888338      68.46240630      66.44209588
Pt      58.11888338      64.53880630      63.66769172
Pt      59.50608547      62.57700630      65.05489380
Pt      58.11888338      64.53880630      66.44209588
Pt      56.73168130      86.11860630      67.82929797
Pt      55.34447922      84.15680630      66.44209588
Pt      53.95727713      82.19500630      67.82929797
Pt      56.73168130      82.19500630      67.82929797
Pt      55.34447922      84.15680630      69.21650005
Pt      55.34447922      80.23320630      66.44209588
Pt      53.95727713      78.27140630      67.82929797
Pt      56.73168130      78.27140630      67.82929797
Pt      55.34447922      80.23320630      69.21650005
Pt      55.34447922      76.30960630      66.44209588
Pt      53.95727713      74.34780630      67.82929797
Pt      56.73168130      74.34780630      67.82929797
Pt      55.34447922      76.30960630      69.21650005
Pt      55.34447922      72.38600630      66.44209588
Pt      53.95727713      70.42420630      67.82929797
Pt      56.73168130      70.42420630      67.82929797
Pt      55.34447922      72.38600630      69.21650005
Pt      55.34447922      68.46240630      66.44209588
Pt      56.73168130      66.50060630      67.82929797
Pt      55.34447922      68.46240630      69.21650005
Pt      53.95727713      82.19500630      70.60370213
Pt      52.57007505      80.23320630      69.21650005
Pt      51.18287297      78.27140630      70.60370213
Pt      53.95727713      78.27140630      70.60370213
Pt      52.57007505      80.23320630      71.99090422
Pt      52.57007505      76.30960630      69.21650005
Pt      51.18287297      74.34780630      70.60370213
Pt      53.95727713      74.34780630      70.60370213
Pt      52.57007505      76.30960630      71.99090422
Pt      52.57007505      72.38600630      69.21650005
Pt      53.95727713      70.42420630      70.60370213
Pt      52.57007505      72.38600630      71.99090422
Pt      51.18287297      78.27140630      73.37810630
Pt      51.18287297      74.34780630      73.37810630
Pt      76.15251047      78.27140630      51.18287297
Pt      78.92691463      78.27140630      51.18287297
Pt      77.53971255      80.23320630      52.57007505
Pt      76.15251047      74.34780630      51.18287297
Pt      78.92691463      74.34780630      51.18287297
Pt      77.53971255      76.30960630      52.57007505
Pt      77.53971255      72.38600630      52.57007505
Pt      73.37810630      82.19500630      53.95727713
Pt      76.15251047      82.19500630      53.95727713
Pt      74.76530838      84.15680630      55.34447922
Pt      74.76530838      80.23320630      52.57007505
Pt      73.37810630      78.27140630      53.95727713
Pt      76.15251047      78.27140630      53.95727713
Pt      74.76530838      80.23320630      55.34447922
Pt      74.76530838      76.30960630      52.57007505
Pt      73.37810630      74.34780630      53.95727713
Pt      76.15251047      74.34780630      53.95727713
Pt      74.76530838      76.30960630      55.34447922
Pt      74.76530838      72.38600630      52.57007505
Pt      73.37810630      70.42420630      53.95727713
Pt      76.15251047      70.42420630      53.95727713
Pt      74.76530838      72.38600630      55.34447922
Pt      74.76530838      68.46240630      55.34447922
Pt      70.60370213      86.11860630      56.73168130
Pt      73.37810630      86.11860630      56.73168130
Pt      71.99090422      88.08040630      58.11888338
Pt      71.99090422      84.15680630      55.34447922
Pt      70.60370213      82.19500630      56.73168130
Pt      73.37810630      82.19500630      56.73168130
Pt      71.99090422      84.15680630      58.11888338
Pt      71.99090422      80.23320630      55.34447922
Pt      70.60370213      78.27140630      56.73168130
Pt      73.37810630      78.27140630      56.73168130
Pt      71.99090422      80.23320630      58.11888338
Pt      71.99090422      76.30960630      55.34447922
Pt      70.60370213      74.34780630      56.73168130
Pt      73.37810630      74.34780630      56.73168130
Pt      71.99090422      76.30960630      58.11888338
Pt      71.99090422      72.38600630      55.34447922
Pt      70.60370213      70.42420630      56.73168130
Pt      73.37810630      70.42420630      56.73168130
Pt      71.99090422      72.38600630      58.11888338
Pt      71.99090422      68.46240630      55.34447922
Pt      70.60370213      66.50060630      56.73168130
Pt      73.37810630      66.50060630      56.73168130
Pt      71.99090422      68.46240630      58.11888338
Pt      71.99090422      64.53880630      58.11888338
Pt      67.82929797      90.04220630      59.50608547
Pt      70.60370213      90.04220630      59.50608547
Pt      69.21650005      92.00400630      60.89328755
Pt      69.21650005      88.08040630      58.11888338
Pt      67.82929797      86.11860630      59.50608547
Pt      70.60370213      86.11860630      59.50608547
Pt      69.21650005      88.08040630      60.89328755
Pt      69.21650005      84.15680630      58.11888338
Pt      67.82929797      82.19500630      59.50608547
Pt      70.60370213      82.19500630      59.50608547
Pt      69.21650005      84.15680630      60.89328755
Pt      69.21650005      80.23320630      58.11888338
Pt      67.82929797      78.27140630      59.50608547
Pt      70.60370213      78.27140630      59.50608547
Pt      69.21650005      80.23320630      60.89328755
Pt      69.21650005      76.30960630      58.11888338
Pt      67.82929797      74.34780630      59.50608547
Pt      70.60370213      74.34780630      59.50608547
Pt      69.21650005      76.30960630      60.89328755
Pt      69.21650005      72.38600630      58.11888338
Pt      67.82929797      70.42420630      59.50608547
Pt      70.60370213      70.42420630      59.50608547
Pt      69.21650005      72.38600630      60.89328755
Pt      69.21650005      68.46240630      58.11888338
Pt      67.82929797      66.50060630      59.50608547
Pt      70.60370213      66.50060630      59.50608547
Pt      69.21650005      68.46240630      60.89328755
Pt      69.21650005      64.53880630      58.11888338
Pt      67.82929797      62.57700630      59.50608547
Pt      70.60370213      62.57700630      59.50608547
Pt      69.21650005      64.53880630      60.89328755
Pt      69.21650005      60.61520630      60.89328755
Pt      65.05489380      93.96580630      62.28048963
Pt      67.82929797      93.96580630      62.28048963
Pt      66.44209588      95.92760630      63.66769172
Pt      66.44209588      92.00400630      60.89328755
Pt      65.05489380      90.04220630      62.28048963
Pt      67.82929797      90.04220630      62.28048963
Pt      66.44209588      92.00400630      63.66769172
Pt      66.44209588      88.08040630      60.89328755
Pt      65.05489380      86.11860630      62.28048963
Pt      67.82929797      86.11860630      62.28048963
Pt      66.44209588      88.08040630      63.66769172
Pt      66.44209588      84.15680630      60.89328755
Pt      65.05489380      82.19500630      62.28048963
Pt      67.82929797      82.19500630      62.28048963
Pt      66.44209588      84.15680630      63.66769172
Pt      66.44209588      80.23320630      60.89328755
Pt      65.05489380      78.27140630      62.28048963
Pt      67.82929797      78.27140630      62.28048963
Pt      66.44209588      80.23320630      63.66769172
Pt      66.44209588      76.30960630      60.89328755
Pt      65.05489380      74.34780630      62.28048963
Pt      67.82929797      74.34780630      62.28048963
Pt      66.44209588      76.30960630      63.66769172
Pt      66.44209588      72.38600630      60.89328755
Pt      65.05489380      70.42420630      62.28048963
Pt      67.82929797      70.42420630      62.28048963
Pt      66.44209588      72.38600630      63.66769172
Pt      66.44209588      68.46240630      60.89328755
Pt      65.05489380      66.50060630      62.28048963
Pt      67.82929797      66.50060630      62.28048963
Pt      66.44209588      68.46240630      63.66769172
Pt      66.44209588      64.53880630      60.89328755
Pt      65.05489380      62.57700630      62.28048963
Pt      67.82929797      62.57700630      62.28048963
Pt      66.44209588      64.53880630      63.66769172
Pt      66.44209588      60.61520630      60.89328755
Pt      65.05489380      58.65340630      62.28048963
Pt      67.82929797      58.65340630      62.28048963
Pt      66.44209588      60.61520630      63.66769172
Pt      66.44209588      56.69160630      63.66769172
Pt      62.28048963      93.96580630      65.05489380
Pt      65.05489380      93.96580630      65.05489380
Pt      63.66769172      95.92760630      66.44209588
Pt      63.66769172      92.00400630      63.66769172
Pt      62.28048963      90.04220630      65.05489380
Pt      65.05489380      90.04220630      65.05489380
Pt      63.66769172      92.00400630      66.44209588
Pt      63.66769172      88.08040630      63.66769172
Pt      62.28048963      86.11860630      65.05489380
Pt      65.05489380      86.11860630      65.05489380
Pt      63.66769172      88.08040630      66.44209588
Pt      63.66769172      84.15680630      63.66769172
Pt      62.28048963      82.19500630      65.05489380
Pt      65.05489380      82.19500630      65.05489380
Pt      63.66769172      84.15680630      66.44209588
Pt      63.66769172      80.23320630      63.66769172
Pt      62.28048963      78.27140630      65.05489380
Pt      65.05489380      78.27140630      65.05489380
Pt      63.66769172      80.23320630      66.44209588
Pt      63.66769172      76.30960630      63.66769172
Pt      62.28048963      74.34780630      65.05489380
Pt      65.05489380      74.34780630      65.05489380
Pt      63.66769172      76.30960630      66.44209588
Pt      63.66769172      72.38600630      63.66769172
Pt      62.28048963      70.42420630      65.05489380
Pt      65.05489380      70.42420630      65.05489380
Pt      63.66769172      72.38600630      66.44209588
Pt      63.66769172      68.46240630      63.66769172
Pt      62.28048963      66.50060630      65.05489380
Pt      65.05489380      66.50060630      65.05489380
Pt      63.66769172      68.46240630      66.44209588
Pt      63.66769172      64.53880630      63.66769172
Pt      62.28048963      62.57700630      65.05489380
Pt      65.05489380      62.57700630      65.05489380
Pt      63.66769172      64.53880630      66.44209588
Pt      63.66769172      60.61520630      63.66769172
Pt      62.28048963      58.65340630      65.05489380
Pt      65.05489380      58.65340630      65.05489380
Pt      63.66769172      60.61520630      66.44209588
Pt      63.66769172      56.69160630      66.44209588
Pt      62.28048963      93.96580630      67.82929797
Pt      60.89328755      92.00400630      66.44209588
Pt      59.50608547      90.04220630      67.82929797
Pt      62.28048963      90.04220630      67.82929797
Pt      60.89328755      92.00400630      69.21650005
Pt      60.89328755      88.08040630      66.44209588
Pt      59.50608547      86.11860630      67.82929797
Pt      62.28048963      86.11860630      67.82929797
Pt      60.89328755      88.08040630      69.21650005
Pt      60.89328755      84.15680630      66.44209588
Pt      59.50608547      82.19500630      67.82929797
Pt      62.28048963      82.19500630      67.82929797
Pt      60.89328755      84.15680630      69.21650005
Pt      60.89328755      80.23320630      66.44209588
Pt      59.50608547      78.27140630      67.82929797
Pt      62.28048963      78.27140630      67.82929797
Pt      60.89328755      80.23320630      69.21650005
Pt      60.89328755      76.30960630      66.44209588
Pt      59.50608547      74.34780630      67.82929797
Pt      62.28048963      74.34780630      67.82929797
Pt      60.89328755      76.30960630      69.21650005
Pt      60.89328755      72.38600630      66.44209588
Pt      59.50608547      70.42420630      67.82929797
Pt      62.28048963      70.42420630      67.82929797
Pt      60.89328755      72.38600630      69.21650005
Pt      60.89328755      68.46240630      66.44209588
Pt      59.50608547      66.50060630      67.82929797
Pt      62.28048963      66.50060630      67.82929797
Pt      60.89328755      68.46240630      69.21650005
Pt      60.89328755      64.53880630      66.44209588
Pt      59.50608547      62.57700630      67.82929797
Pt      62.28048963      62.57700630      67.82929797
Pt      60.89328755      64.53880630      69.21650005
Pt      60.89328755      60.61520630      66.44209588
Pt      62.28048963      58.65340630      67.82929797
Pt      60.89328755      60.61520630      69.21650005
Pt      59.50608547      90.04220630      70.60370213
Pt      58.11888338      88.08040630      69.21650005
Pt      56.73168130      86.11860630      70.60370213
Pt      59.50608547      86.11860630      70.60370213
Pt      58.11888338      88.08040630      71.99090422
Pt      58.11888338      84.15680630      69.21650005
Pt      56.73168130      82.19500630      70.60370213
Pt      59.50608547      82.19500630      70.60370213
Pt      58.11888338      84.15680630      71.99090422
Pt      58.11888338      80.23320630      69.21650005
Pt      56.73168130      78.27140630      70.60370213
Pt      59.50608547      78.27140630      70.60370213
Pt      58.11888338      80.23320630      71.99090422
Pt      58.11888338      76.30960630      69.21650005
Pt      56.73168130      74.34780630      70.60370213
Pt      59.50608547      74.34780630      70.60370213
Pt      58.11888338      76.30960630      71.99090422
Pt      58.11888338      72.38600630      69.21650005
Pt      56.73168130      70.42420630      70.60370213
Pt      59.50608547      70.42420630      70.60370213
Pt      58.11888338      72.38600630      71.99090422
Pt      58.11888338      68.46240630      69.21650005
Pt      56.73168130      66.50060630      70.60370213
Pt      59.50608547      66.50060630      70.60370213
Pt      58.11888338      68.46240630      71.99090422
Pt      58.11888338      64.53880630      69.21650005
Pt      59.50608547      62.57700630      70.60370213
Pt      58.11888338      64.53880630      71.99090422
Pt      56.73168130      86.11860630      73.37810630
Pt      55.34447922      84.15680630      71.99090422
Pt      53.95727713      82.19500630      73.37810630
Pt      56.73168130      82.19500630      73.37810630
Pt      55.34447922      84.15680630      74.76530838
Pt      55.34447922      80.23320630      71.99090422
Pt      53.95727713      78.27140630      73.37810630
Pt      56.73168130      78.27140630      73.37810630
Pt      55.34447922      80.23320630      74.76530838
Pt      55.34447922      76.30960630      71.99090422
Pt      53.95727713      74.34780630      73.37810630
Pt      56.73168130      74.34780630      73.37810630
Pt      55.34447922      76.30960630      74.76530838
Pt      55.34447922      72.38600630      71.99090422
Pt      53.95727713      70.42420630      73.37810630
Pt      56.73168130      70.42420630      73.37810630
Pt      55.34447922      72.38600630      74.76530838
Pt      55.34447922      68.46240630      71.99090422
Pt      56.73168130      66.50060630      73.37810630
Pt      55.34447922      68.46240630      74.76530838
Pt      53.95727713      82.19500630      76.15251047
Pt      52.57007505      80.23320630      74.76530838
Pt      51.18287297      78.27140630      76.15251047
Pt      53.95727713      78.27140630      76.15251047
Pt      52.57007505      80.23320630      77.53971255
Pt      52.57007505      76.30960630      74.76530838
Pt      51.18287297      74.34780630      76.15251047
Pt      53.95727713      74.34780630      76.15251047
Pt      52.57007505      76.30960630      77.53971255
Pt      52.57007505      72.38600630      74.76530838
Pt      53.95727713      70.42420630      76.15251047
Pt      52.57007505      72.38600630      77.53971255
Pt      51.18287297      78.27140630      78.92691463
Pt      51.18287297      74.34780630      78.92691463
Pt      81.70131880      78.27140630      51.18287297
Pt      84.47572297      78.27140630      51.18287297
Pt      83.08852088      80.23320630      52.57007505
Pt      81.70131880      74.34780630      51.18287297
Pt      84.47572297      74.34780630      51.18287297
Pt      83.08852088      76.30960630      52.57007505
Pt      83.08852088      72.38600630      52.57007505
Pt      78.92691463      82.19500630      53.95727713
Pt      81.70131880      82.19500630      53.95727713
Pt      80.31411672      84.15680630      55.34447922
Pt      80.31411672      80.23320630      52.57007505
Pt      78.92691463      78.27140630      53.95727713
Pt      81.70131880      78.27140630      53.95727713
Pt      80.31411672      80.23320630      55.34447922
Pt      80.31411672      76.30960630      52.57007505
Pt      78.92691463      74.34780630      53.95727713
Pt      81.70131880      74.34780630      53.95727713
Pt      80.31411672      76.30960630      55.34447922
Pt      80.31411672      72.38600630      52.57007505
Pt      78.92691463      70.42420630      53.95727713
Pt      81.70131880      70.42420630      53.95727713
Pt      80.31411672      72.38600630      55.34447922
Pt      80.31411672      68.46240630      55.34447922
Pt      76.15251047      86.11860630      56.73168130
Pt      78.92691463      86.11860630      56.73168130
Pt      77.53971255      88.08040630      58.11888338
Pt      77.53971255      84.15680630      55.34447922
Pt      76.15251047      82.19500630      56.73168130
Pt      78.92691463      82.19500630      56.73168130
Pt      77.53971255      84.15680630      58.11888338
Pt      77.53971255      80.23320630      55.34447922
Pt      76.15251047      78.27140630      56.73168130
Pt      78.92691463      78.27140630      56.73168130
Pt      77.53971255      80.23320630      58.11888338
Pt      77.53971255      76.30960630      55.34447922
Pt      76.15251047      74.34780630      56.73168130
Pt      78.92691463      74.34780630      56.73168130
Pt      77.53971255      76.30960630      58.11888338
Pt      77.53971255      72.38600630      55.34447922
Pt      76.15251047      70.42420630      56.73168130
Pt      78.92691463      70.42420630      56.73168130
Pt      77.53971255      72.38600630      58.11888338
Pt      77.53971255      68.46240630      55.34447922
Pt      76.15251047      66.50060630      56.73168130
Pt      78.92691463      66.50060630      56.73168130
Pt      77.53971255      68.46240630      58.11888338
Pt      77.53971255      64.53880630      58.11888338
Pt      73.37810630      90.04220630      59.50608547
Pt      76.15251047      90.04220630      59.50608547
Pt      74.76530838      92.00400630      60.89328755
Pt      74.76530838      88.08040630      58.11888338
Pt      73.37810630      86.11860630      59.50608547
Pt      76.15251047      86.11860630      59.50608547
Pt      74.76530838      88.08040630      60.89328755
Pt      74.76530838      84.15680630      58.11888338
Pt      73.37810630      82.19500630      59.50608547
Pt      76.15251047      82.19500630      59.50608547
Pt      74.76530838      84.15680630      60.89328755
Pt      74.76530838      80.23320630      58.11888338
Pt      73.37810630      78.27140630      59.50608547
Pt      76.15251047      78.27140630      59.50608547
Pt      74.76530838      80.23320630      60.89328755
Pt      74.76530838      76.30960630      58.11888338
Pt      73.37810630      74.34780630      59.50608547
Pt      76.15251047      74.34780630      59.50608547
Pt      74.76530838      76.30960630      60.89328755
Pt      74.76530838      72.38600630      58.11888338
Pt      73.37810630      70.42420630      59.50608547
Pt      76.15251047      70.42420630      59.50608547
Pt      74.76530838      72.38600630      60.89328755
Pt      74.76530838      68.46240630      58.11888338
Pt      73.37810630      66.50060630      59.50608547
Pt      76.15251047      66.50060630      59.50608547
Pt      74.76530838      68.46240630      60.89328755
Pt      74.76530838      64.53880630      58.11888338
Pt      73.37810630      62.57700630      59.50608547
Pt      76.15251047      62.57700630      59.50608547
Pt      74.76530838      64.53880630      60.89328755
Pt      74.76530838      60.61520630      60.89328755
Pt      70.60370213      93.96580630      62.28048963
Pt      73.37810630      93.96580630      62.28048963
Pt      71.99090422      95.92760630      63.66769172
Pt      71.99090422      92.00400630      60.89328755
Pt      70.60370213      90.04220630      62.28048963
Pt      73.37810630      90.04220630      62.28048963
Pt      71.99090422      92.00400630      63.66769172
Pt      71.99090422      88.08040630      60.89328755
Pt      70.60370213      86.11860630      62.28048963
Pt      73.37810630      86.11860630      62.28048963
Pt      71.99090422      88.08040630      63.66769172
Pt      71.99090422      84.15680630      60.89328755
Pt      70.60370213      82.19500630      62.28048963
Pt      73.37810630      82.19500630      62.28048963
Pt      71.99090422      84.15680630      63.66769172
Pt      71.99090422      80.23320630      60.89328755
Pt      70.60370213      78.27140630      62.28048963
Pt      73.37810630      78.27140630      62.28048963
Pt      71.99090422      80.23320630      63.66769172
Pt      71.99090422      76.30960630      60.89328755
Pt      70.60370213      74.34780630      62.28048963
Pt      73.37810630      74.34780630      62.28048963
Pt      71.99090422      76.30960630      63.66769172
Pt      71.99090422      72.38600630      60.89328755
Pt      70.60370213      70.42420630      62.28048963
Pt      73.37810630      70.42420630      62.28048963
Pt      71.99090422      72.38600630      63.66769172
Pt      71.99090422      68.46240630      60.89328755
Pt      70.60370213      66.50060630      62.28048963
Pt      73.37810630      66.50060630      62.28048963
Pt      71.99090422      68.46240630      63.66769172
Pt      71.99090422      64.53880630      60.89328755
Pt      70.60370213      62.57700630      62.28048963
Pt      73.37810630      62.57700630      62.28048963
Pt      71.99090422      64.53880630      63.66769172
Pt      71.99090422      60.61520630      60.89328755
Pt      70.60370213      58.65340630      62.28048963
Pt      73.37810630      58.65340630      62.28048963
Pt      71.99090422      60.61520630      63.66769172
Pt      71.99090422      56.69160630      63.66769172
Pt      67.82929797      97.88940630      65.05489380
Pt      70.60370213      97.88940630      65.05489380
Pt      69.21650005      99.85120630      66.44209588
Pt      69.21650005      95.92760630      63.66769172
Pt      67.82929797      93.96580630      65.05489380
Pt      70.60370213      93.96580630      65.05489380
Pt      69.21650005      95.92760630      66.44209588
Pt      69.21650005      92.00400630      63.66769172
Pt      67.82929797      90.04220630      65.05489380
Pt      70.60370213      90.04220630      65.05489380
Pt      69.21650005      92.00400630      66.44209588
Pt      69.21650005      88.08040630      63.66769172
Pt      67.82929797      86.11860630      65.05489380
Pt      70.60370213      86.11860630      65.05489380
Pt      69.21650005      88.08040630      66.44209588
Pt      69.21650005      84.15680630      63.66769172
Pt      67.82929797      82.19500630      65.05489380
Pt      70.60370213      82.19500630      65.05489380
Pt      69.21650005      84.15680630      66.44209588
Pt      69.21650005      80.23320630      63.66769172
Pt      67.82929797      78.27140630      65.05489380
Pt      70.60370213      78.27140630      65.05489380
Pt      69.21650005      80.23320630      66.44209588
Pt      69.21650005      76.30960630      63.66769172
Pt      67.82929797      74.34780630      65.05489380
Pt      70.60370213      74.34780630      65.05489380
Pt      69.21650005      76.30960630      66.44209588
Pt      69.21650005      72.38600630      63.66769172
Pt      67.82929797      70.42420630      65.05489380
Pt      70.60370213      70.42420630      65.05489380
Pt      69.21650005      72.38600630      66.44209588
Pt      69.21650005      68.46240630      63.66769172
Pt      67.82929797      66.50060630      65.05489380
Pt      70.60370213      66.50060630      65.05489380
Pt      69.21650005      68.46240630      66.44209588
Pt      69.21650005      64.53880630      63.66769172
Pt      67.82929797      62.57700630      65.05489380
Pt      70.60370213      62.57700630      65.05489380
Pt      69.21650005      64.53880630      66.44209588
Pt      69.21650005      60.61520630      63.66769172
Pt      67.82929797      58.65340630      65.05489380
Pt      70.60370213      58.65340630      65.05489380
Pt      69.21650005      60.61520630      66.44209588
Pt      69.21650005      56.69160630      63.66769172
Pt      67.82929797      54.72980630      65.05489380
Pt      70.60370213      54.72980630      65.05489380
Pt      69.21650005      56.69160630      66.44209588
Pt      69.21650005      52.76800630      66.44209588
Pt      65.05489380      97.88940630      67.82929797
Pt      67.82929797      97.88940630      67.82929797
Pt      66.44209588      99.85120630      69.21650005
Pt      66.44209588      95.92760630      66.44209588
Pt      65.05489380      93.96580630      67.82929797
Pt      67.82929797      93.96580630      67.82929797
Pt      66.44209588      95.92760630      69.21650005
Pt      66.44209588      92.00400630      66.44209588
Pt      65.05489380      90.04220630      67.82929797
Pt      67.82929797      90.04220630      67.82929797
Pt      66.44209588      92.00400630      69.21650005
Pt      66.44209588      88.08040630      66.44209588
Pt      65.05489380      86.11860630      67.82929797
Pt      67.82929797      86.11860630      67.82929797
Pt      66.44209588      88.08040630      69.21650005
Pt      66.44209588      84.15680630      66.44209588
Pt      65.05489380      82.19500630      67.82929797
Pt      67.82929797      82.19500630      67.82929797
Pt      66.44209588      84.15680630      69.21650005
Pt      66.44209588      80.23320630      66.44209588
Pt      65.05489380      78.27140630      67.82929797
Pt      67.82929797      78.27140630      67.82929797
Pt      66.44209588      80.23320630      69.21650005
Pt      66.44209588      76.30960630      66.44209588
Pt      65.05489380      74.34780630      67.82929797
Pt      67.82929797      74.34780630      67.82929797
Pt      66.44209588      76.30960630      69.21650005
Pt      66.44209588      72.38600630      66.44209588
Pt      65.05489380      70.42420630      67.82929797
Pt      67.82929797      70.42420630      67.82929797
Pt      66.44209588      72.38600630      69.21650005
Pt      66.44209588      68.46240630      66.44209588
Pt      65.05489380      66.50060630      67.82929797
Pt      67.82929797      66.50060630      67.82929797
Pt      66.44209588      68.46240630      69.21650005
Pt      66.44209588      64.53880630      66.44209588
Pt      65.05489380      62.57700630      67.82929797
Pt      67.82929797      62.57700630      67.82929797
Pt      66.44209588      64.53880630      69.21650005
Pt      66.44209588      60.61520630      66.44209588
Pt      65.05489380      58.65340630      67.82929797
Pt      67.82929797      58.65340630      67.82929797
Pt      66.44209588      60.61520630      69.21650005
Pt      66.44209588      56.69160630      66.44209588
Pt      65.05489380      54.72980630      67.82929797
Pt      67.82929797      54.72980630      67.82929797
Pt      66.44209588      56.69160630      69.21650005
Pt      66.44209588      52.76800630      69.21650005
Pt      65.05489380      97.88940630      70.60370213
Pt      63.66769172      95.92760630      69.21650005
Pt      62.28048963      93.96580630      70.60370213
Pt      65.05489380      93.96580630      70.60370213
Pt      63.66769172      95.92760630      71.99090422
Pt      63.66769172      92.00400630      69.21650005
Pt      62.28048963      90.04220630      70.60370213
Pt      65.05489380      90.04220630      70.60370213
Pt      63.66769172      92.00400630      71.99090422
Pt      63.66769172      88.08040630      69.21650005
Pt      62.28048963      86.11860630      70.60370213
Pt      65.05489380      86.11860630      70.60370213
Pt      63.66769172      88.08040630      71.99090422
Pt      63.66769172      84.15680630      69.21650005
Pt      62.28048963      82.19500630      70.60370213
Pt      65.05489380      82.19500630      70.60370213
Pt      63.66769172      84.15680630      71.99090422
Pt      63.66769172      80.23320630      69.21650005
Pt      62.28048963      78.27140630      70.60370213
Pt      65.05489380      78.27140630      70.60370213
Pt      63.66769172      80.23320630      71.99090422
Pt      63.66769172      76.30960630      69.21650005
Pt      62.28048963      74.34780630      70.60370213
Pt      65.05489380      74.34780630      70.60370213
Pt      63.66769172      76.30960630      71.99090422
Pt      63.66769172      72.38600630      69.21650005
Pt      62.28048963      70.42420630      70.60370213
Pt      65.05489380      70.42420630      70.60370213
Pt      63.66769172      72.38600630      71.99090422
Pt      63.66769172      68.46240630      69.21650005
Pt      62.28048963      66.50060630      70.60370213
Pt      65.05489380      66.50060630      70.60370213
Pt      63.66769172      68.46240630      71.99090422
Pt      63.66769172      64.53880630      69.21650005
Pt      62.28048963      62.57700630      70.60370213
Pt      65.05489380      62.57700630      70.60370213
Pt      63.66769172      64.53880630      71.99090422
Pt      63.66769172      60.61520630      69.21650005
Pt      62.28048963      58.65340630      70.60370213
Pt      65.05489380      58.65340630      70.60370213
Pt      63.66769172      60.61520630      71.99090422
Pt      63.66769172      56.69160630      69.21650005
Pt      65.05489380      54.72980630      70.60370213
Pt      63.66769172      56.69160630      71.99090422
Pt      62.28048963      93.96580630      73.37810630
Pt      60.89328755      92.00400630      71.99090422
Pt      59.50608547      90.04220630      73.37810630
Pt      62.28048963      90.04220630      73.37810630
Pt      60.89328755      92.00400630      74.76530838
Pt      60.89328755      88.08040630      71.99090422
Pt      59.50608547      86.11860630      73.37810630
Pt      62.28048963      86.11860630      73.37810630
Pt      60.89328755      88.08040630      74.76530838
Pt      60.89328755      84.15680630      71.99090422
Pt      59.50608547      82.19500630      73.37810630
Pt      62.28048963      82.19500630      73.37810630
Pt      60.89328755      84.15680630      74.76530838
Pt      60.89328755      80.23320630      71.99090422
Pt      59.50608547      78.27140630      73.37810630
Pt      62.28048963      78.27140630      73.37810630
Pt      60.89328755      80.23320630      74.76530838
Pt      60.89328755      76.30960630      71.99090422
Pt      59.50608547      74.34780630      73.37810630
Pt      62.28048963      74.34780630      73.37810630
Pt      60.89328755      76.30960630      74.76530838
Pt      60.89328755      72.38600630      71.99090422
Pt      59.50608547      70.42420630      73.37810630
Pt      62.28048963      70.42420630      73.37810630
Pt      60.89328755      72.38600630      74.76530838
Pt      60.89328755      68.46240630      71.99090422
Pt      59.50608547      66.50060630      73.37810630
Pt      62.28048963      66.50060630      73.37810630
Pt      60.89328755      68.46240630      74.76530838
Pt      60.89328755      64.53880630      71.99090422
Pt      59.50608547      62.57700630      73.37810630
Pt      62.28048963      62.57700630      73.37810630
Pt      60.89328755      64.53880630      74.76530838
Pt      60.89328755      60.61520630      71.99090422
Pt      62.28048963      58.65340630      73.37810630
Pt      60.89328755      60.61520630      74.76530838
Pt      59.50608547      90.04220630      76.15251047
Pt      58.11888338      88.08040630      74.76530838
Pt      56.73168130      86.11860630      76.15251047
Pt      59.50608547      86.11860630      76.15251047
Pt      58.11888338      88.08040630      77.53971255
Pt      58.11888338      84.15680630      74.76530838
Pt      56.73168130      82.19500630      76.15251047
Pt      59.50608547      82.19500630      76.15251047
Pt      58.11888338      84.15680630      77.53971255
Pt      58.11888338      80.23320630      74.76530838
Pt      56.73168130      78.27140630      76.15251047
Pt      59.50608547      78.27140630      76.15251047
Pt      58.11888338      80.23320630      77.53971255
Pt      58.11888338      76.30960630      74.76530838
Pt      56.73168130      74.34780630      76.15251047
Pt      59.50608547      74.34780630      76.15251047
Pt      58.11888338      76.30960630      77.53971255
Pt      58.11888338      72.38600630      74.76530838
Pt      56.73168130      70.42420630      76.15251047
Pt      59.50608547      70.42420630      76.15251047
Pt      58.11888338      72.38600630      77.53971255
Pt      58.11888338      68.46240630      74.76530838
Pt      56.73168130      66.50060630      76.15251047
Pt      59.50608547      66.50060630      76.15251047
Pt      58.11888338      68.46240630      77.53971255
Pt      58.11888338      64.53880630      74.76530838
Pt      59.50608547      62.57700630      76.15251047
Pt      58.11888338      64.53880630      77.53971255
Pt      56.73168130      86.11860630      78.92691463
Pt      55.34447922      84.15680630      77.53971255
Pt      53.95727713      82.19500630      78.92691463
Pt      56.73168130      82.19500630      78.92691463
Pt      55.34447922      84.15680630      80.31411672
Pt      55.34447922      80.23320630      77.53971255
Pt      53.95727713      78.27140630      78.92691463
Pt      56.73168130      78.27140630      78.92691463
Pt      55.34447922      80.23320630      80.31411672
Pt      55.34447922      76.30960630      77.53971255
Pt      53.95727713      74.34780630      78.92691463
Pt      56.73168130      74.34780630      78.92691463
Pt      55.34447922      76.30960630      80.31411672
Pt      55.34447922      72.38600630      77.53971255
Pt      53.95727713      70.42420630      78.92691463
Pt      56.73168130      70.42420630      78.92691463
Pt      55.34447922      72.38600630      80.31411672
Pt      55.34447922      68.46240630      77.53971255
Pt      56.73168130      66.50060630      78.92691463
Pt      55.34447922      68.46240630      80.31411672
Pt      53.95727713      82.19500630      81.70131880
Pt      52.57007505      80.23320630      80.31411672
Pt      51.18287297      78.27140630      81.70131880
Pt      53.95727713      78.27140630      81.70131880
Pt      52.57007505      80.23320630      83.08852088
Pt      52.57007505      76.30960630      80.31411672
Pt      51.18287297      74.34780630      81.70131880
Pt      53.95727713      74.34780630      81.70131880
Pt      52.57007505      76.30960630      83.08852088
Pt      52.57007505      72.38600630      80.31411672
Pt      53.95727713      70.42420630      81.70131880
Pt      52.57007505      72.38600630      83.08852088
Pt      51.18287297      78.27140630      84.47572297
Pt      51.18287297      74.34780630      84.47572297
Pt      88.63732922      76.30960630      52.57007505
Pt      84.47572297      82.19500630      53.95727713
Pt      87.25012713      82.19500630      53.95727713
Pt      85.86292505      84.15680630      55.34447922
Pt      85.86292505      80.23320630      52.57007505
Pt      84.47572297      78.27140630      53.95727713
Pt      87.25012713      78.27140630      53.95727713
Pt      85.86292505      80.23320630      55.34447922
Pt      85.86292505      76.30960630      52.57007505
Pt      84.47572297      74.34780630      53.95727713
Pt      87.25012713      74.34780630      53.95727713
Pt      85.86292505      76.30960630      55.34447922
Pt      85.86292505      72.38600630      52.57007505
Pt      84.47572297      70.42420630      53.95727713
Pt      87.25012713      70.42420630      53.95727713
Pt      85.86292505      72.38600630      55.34447922
Pt      85.86292505      68.46240630      55.34447922
Pt      81.70131880      86.11860630      56.73168130
Pt      84.47572297      86.11860630      56.73168130
Pt      83.08852088      88.08040630      58.11888338
Pt      83.08852088      84.15680630      55.34447922
Pt      81.70131880      82.19500630      56.73168130
Pt      84.47572297      82.19500630      56.73168130
Pt      83.08852088      84.15680630      58.11888338
Pt      83.08852088      80.23320630      55.34447922
Pt      81.70131880      78.27140630      56.73168130
Pt      84.47572297      78.27140630      56.73168130
Pt      83.08852088      80.23320630      58.11888338
Pt      83.08852088      76.30960630      55.34447922
Pt      81.70131880      74.34780630      56.73168130
Pt      84.47572297      74.34780630      56.73168130
Pt      83.08852088      76.30960630      58.11888338
Pt      83.08852088      72.38600630      55.34447922
Pt      81.70131880      70.42420630      56.73168130
Pt      84.47572297      70.42420630      56.73168130
Pt      83.08852088      72.38600630      58.11888338
Pt      83.08852088      68.46240630      55.34447922
Pt      81.70131880      66.50060630      56.73168130
Pt      84.47572297      66.50060630      56.73168130
Pt      83.08852088      68.46240630      58.11888338
Pt      83.08852088      64.53880630      58.11888338
Pt      78.92691463      90.04220630      59.50608547
Pt      81.70131880      90.04220630      59.50608547
Pt      80.31411672      92.00400630      60.89328755
Pt      80.31411672      88.08040630      58.11888338
Pt      78.92691463      86.11860630      59.50608547
Pt      81.70131880      86.11860630      59.50608547
Pt      80.31411672      88.08040630      60.89328755
Pt      80.31411672      84.15680630      58.11888338
Pt      78.92691463      82.19500630      59.50608547
Pt      81.70131880      82.19500630      59.50608547
Pt      80.31411672      84.15680630      60.89328755
Pt      80.31411672      80.23320630      58.11888338
Pt      78.92691463      78.27140630      59.50608547
Pt      81.70131880      78.27140630      59.50608547
Pt      80.31411672      80.23320630      60.89328755
Pt      80.31411672      76.30960630      58.11888338
Pt      78.92691463      74.34780630      59.50608547
Pt      81.70131880      74.34780630      59.50608547
Pt      80.31411672      76.30960630      60.89328755
Pt      80.31411672      72.38600630      58.11888338
Pt      78.92691463      70.42420630      59.50608547
Pt      81.70131880      70.42420630      59.50608547
Pt      80.31411672      72.38600630      60.89328755
Pt      80.31411672      68.46240630      58.11888338
Pt      78.92691463      66.50060630      59.50608547
Pt      81.70131880      66.50060630      59.50608547
Pt      80.31411672      68.46240630      60.89328755
Pt      80.31411672      64.53880630      58.11888338
Pt      78.92691463      62.57700630      59.50608547
Pt      81.70131880      62.57700630      59.50608547
Pt      80.31411672      64.53880630      60.89328755
Pt      80.31411672      60.61520630      60.89328755
Pt      76.15251047      93.96580630      62.28048963
Pt      78.92691463      93.96580630      62.28048963
Pt      77.53971255      95.92760630      63.66769172
Pt      77.53971255      92.00400630      60.89328755
Pt      76.15251047      90.04220630      62.28048963
Pt      78.92691463      90.04220630      62.28048963
Pt      77.53971255      92.00400630      63.66769172
Pt      77.53971255      88.08040630      60.89328755
Pt      76.15251047      86.11860630      62.28048963
Pt      78.92691463      86.11860630      62.28048963
Pt      77.53971255      88.08040630      63.66769172
Pt      77.53971255      84.15680630      60.89328755
Pt      76.15251047      82.19500630      62.28048963
Pt      78.92691463      82.19500630      62.28048963
Pt      77.53971255      84.15680630      63.66769172
Pt      77.53971255      80.23320630      60.89328755
Pt      76.15251047      78.27140630      62.28048963
Pt      78.92691463      78.27140630      62.28048963
Pt      77.53971255      80.23320630      63.66769172
Pt      77.53971255      76.30960630      60.89328755
Pt      76.15251047      74.34780630      62.28048963
Pt      78.92691463      74.34780630      62.28048963
Pt      77.53971255      76.30960630      63.66769172
Pt      77.53971255      72.38600630      60.89328755
Pt      76.15251047      70.42420630      62.28048963
Pt      78.92691463      70.42420630      62.28048963
Pt      77.53971255      72.38600630      63.66769172
Pt      77.53971255      68.46240630      60.89328755
Pt      76.15251047      66.50060630      62.28048963
Pt      78.92691463      66.50060630      62.28048963
Pt      77.53971255      68.46240630      63.66769172
Pt      77.53971255      64.53880630      60.89328755
Pt      76.15251047      62.57700630      62.28048963
Pt      78.92691463      62.57700630      62.28048963
Pt      77.53971255      64.53880630      63.66769172
Pt      77.53971255      60.61520630      60.89328755
Pt      76.15251047      58.65340630      62.28048963
Pt      78.92691463      58.65340630      62.28048963
Pt      77.53971255      60.61520630      63.66769172
Pt      77.53971255      56.69160630      63.66769172
Pt      73.37810630      97.88940630      65.05489380
Pt      76.15251047      97.88940630      65.05489380
Pt      74.76530838      99.85120630      66.44209588
Pt      74.76530838      95.92760630      63.66769172
Pt      73.37810630      93.96580630      65.05489380
Pt      76.15251047      93.96580630      65.05489380
Pt      74.76530838      95.92760630      66.44209588
Pt      74.76530838      92.00400630      63.66769172
Pt      73.37810630      90.04220630      65.05489380
Pt      76.15251047      90.04220630      65.05489380
Pt      74.76530838      92.00400630      66.44209588
Pt      74.76530838      88.08040630      63.66769172
Pt      73.37810630      86.11860630      65.05489380
Pt      76.15251047      86.11860630      65.05489380
Pt      74.76530838      88.08040630      66.44209588
Pt      74.76530838      84.15680630      63.66769172
Pt      73.37810630      82.19500630      65.05489380
Pt      76.15251047      82.19500630      65.05489380
Pt      74.76530838      84.15680630      66.44209588
Pt      74.76530838      80.23320630      63.66769172
Pt      73.37810630      78.27140630      65.05489380
Pt      76.15251047      78.27140630      65.05489380
Pt      74.76530838      80.23320630      66.44209588
Pt      74.76530838      76.30960630      63.66769172
Pt      73.37810630      74.34780630      65.05489380
Pt      76.15251047      74.34780630      65.05489380
Pt      74.76530838      76.30960630      66.44209588
Pt      74.76530838      72.38600630      63.66769172
Pt      73.37810630      70.42420630      65.05489380
Pt      76.15251047      70.42420630      65.05489380
Pt      74.76530838      72.38600630      66.44209588
Pt      74.76530838      68.46240630      63.66769172
Pt      73.37810630      66.50060630      65.05489380
Pt      76.15251047      66.50060630      65.05489380
Pt      74.76530838      68.46240630      66.44209588
Pt      74.76530838      64.53880630      63.66769172
Pt      73.37810630      62.57700630      65.05489380
Pt      76.15251047      62.57700630      65.05489380
Pt      74.76530838      64.53880630      66.44209588
Pt      74.76530838      60.61520630      63.66769172
Pt      73.37810630      58.65340630      65.05489380
Pt      76.15251047      58.65340630      65.05489380
Pt      74.76530838      60.61520630      66.44209588
Pt      74.76530838      56.69160630      63.66769172
Pt      73.37810630      54.72980630      65.05489380
Pt      76.15251047      54.72980630      65.05489380
Pt      74.76530838      56.69160630      66.44209588
Pt      74.76530838      52.76800630      66.44209588
Pt      71.99090422      99.85120630      66.44209588
Pt      70.60370213      97.88940630      67.82929797
Pt      73.37810630      97.88940630      67.82929797
Pt      71.99090422      99.85120630      69.21650005
Pt      71.99090422      95.92760630      66.44209588
Pt      70.60370213      93.96580630      67.82929797
Pt      73.37810630      93.96580630      67.82929797
Pt      71.99090422      95.92760630      69.21650005
Pt      71.99090422      92.00400630      66.44209588
Pt      70.60370213      90.04220630      67.82929797
Pt      73.37810630      90.04220630      67.82929797
Pt      71.99090422      92.00400630      69.21650005
Pt      71.99090422      88.08040630      66.44209588
Pt      70.60370213      86.11860630      67.82929797
Pt      73.37810630      86.11860630      67.82929797
Pt      71.99090422      88.08040630      69.21650005
Pt      71.99090422      84.15680630      66.44209588
Pt      70.60370213      82.19500630      67.82929797
Pt      73.37810630      82.19500630      67.82929797
Pt      71.99090422      84.15680630      69.21650005
Pt      71.99090422      80.23320630      66.44209588
Pt      70.60370213      78.27140630      67.82929797
Pt      73.37810630      78.27140630      67.82929797
Pt      71.99090422      80.23320630      69.21650005
Pt      71.99090422      76.30960630      66.44209588
Pt      70.60370213      74.34780630      67.82929797
Pt      73.37810630      74.34780630      67.82929797
Pt      71.99090422      76.30960630      69.21650005
Pt      71.99090422      72.38600630      66.44209588
Pt      70.60370213      70.42420630      67.82929797
Pt      73.37810630      70.42420630      67.82929797
Pt      71.99090422      72.38600630      69.21650005
Pt      71.99090422      68.46240630      66.44209588
Pt      70.60370213      66.50060630      67.82929797
Pt      73.37810630      66.50060630      67.82929797
Pt      71.99090422      68.46240630      69.21650005
Pt      71.99090422      64.53880630      66.44209588
Pt      70.60370213      62.57700630      67.82929797
Pt      73.37810630      62.57700630      67.82929797
Pt      71.99090422      64.53880630      69.21650005
Pt      71.99090422      60.61520630      66.44209588
Pt      70.60370213      58.65340630      67.82929797
Pt      73.37810630      58.65340630      67.82929797
Pt      71.99090422      60.61520630      69.21650005
Pt      71.99090422      56.69160630      66.44209588
Pt      70.60370213      54.72980630      67.82929797
Pt      73.37810630      54.72980630      67.82929797
Pt      71.99090422      56.69160630      69.21650005
Pt      71.99090422      52.76800630      66.44209588
Pt      71.99090422      52.76800630      69.21650005
Pt      70.60370213     101.81300630      70.60370213
Pt      69.21650005      99.85120630      69.21650005
Pt      67.82929797      97.88940630      70.60370213
Pt      70.60370213      97.88940630      70.60370213
Pt      69.21650005      99.85120630      71.99090422
Pt      69.21650005      95.92760630      69.21650005
Pt      67.82929797      93.96580630      70.60370213
Pt      70.60370213      93.96580630      70.60370213
Pt      69.21650005      95.92760630      71.99090422
Pt      69.21650005      92.00400630      69.21650005
Pt      67.82929797      90.04220630      70.60370213
Pt      70.60370213      90.04220630      70.60370213
Pt      69.21650005      92.00400630      71.99090422
Pt      69.21650005      88.08040630      69.21650005
Pt      67.82929797      86.11860630      70.60370213
Pt      70.60370213      86.11860630      70.60370213
Pt      69.21650005      88.08040630      71.99090422
Pt      69.21650005      84.15680630      69.21650005
Pt      67.82929797      82.19500630      70.60370213
Pt      70.60370213      82.19500630      70.60370213
Pt      69.21650005      84.15680630      71.99090422
Pt      69.21650005      80.23320630      69.21650005
Pt      67.82929797      78.27140630      70.60370213
Pt      70.60370213      78.27140630      70.60370213
Pt      69.21650005      80.23320630      71.99090422
Pt      69.21650005      76.30960630      69.21650005
Pt      67.82929797      74.34780630      70.60370213
Pt      70.60370213      74.34780630      70.60370213
Pt      69.21650005      76.30960630      71.99090422
Pt      69.21650005      72.38600630      69.21650005
Pt      67.82929797      70.42420630      70.60370213
Pt      70.60370213      70.42420630      70.60370213
Pt      69.21650005      72.38600630      71.99090422
Pt      69.21650005      68.46240630      69.21650005
Pt      67.82929797      66.50060630      70.60370213
Pt      70.60370213      66.50060630      70.60370213
Pt      69.21650005      68.46240630      71.99090422
Pt      69.21650005      64.53880630      69.21650005
Pt      67.82929797      62.57700630      70.60370213
Pt      70.60370213      62.57700630      70.60370213
Pt      69.21650005      64.53880630      71.99090422
Pt      69.21650005      60.61520630      69.21650005
Pt      67.82929797      58.65340630      70.60370213
Pt      70.60370213      58.65340630      70.60370213
Pt      69.21650005      60.61520630      71.99090422
Pt      69.21650005      56.69160630      69.21650005
Pt      67.82929797      54.72980630      70.60370213
Pt      70.60370213      54.72980630      70.60370213
Pt      69.21650005      56.69160630      71.99090422
Pt      69.21650005      52.76800630      69.21650005
Pt      70.60370213      50.80620630      70.60370213
Pt      69.21650005      52.76800630      71.99090422
Pt      66.44209588      99.85120630      71.99090422
Pt      65.05489380      97.88940630      73.37810630
Pt      67.82929797      97.88940630      73.37810630
Pt      66.44209588      99.85120630      74.76530838
Pt      66.44209588      95.92760630      71.99090422
Pt      65.05489380      93.96580630      73.37810630
Pt      67.82929797      93.96580630      73.37810630
Pt      66.44209588      95.92760630      74.76530838
Pt      66.44209588      92.00400630      71.99090422
Pt      65.05489380      90.04220630      73.37810630
Pt      67.82929797      90.04220630      73.37810630
Pt      66.44209588      92.00400630      74.76530838
Pt      66.44209588      88.08040630      71.99090422
Pt      65.05489380      86.11860630      73.37810630
Pt      67.82929797      86.11860630      73.37810630
Pt      66.44209588      88.08040630      74.76530838
Pt      66.44209588      84.15680630      71.99090422
Pt      65.05489380      82.19500630      73.37810630
Pt      67.82929797      82.19500630      73.37810630
Pt      66.44209588      84.15680630      74.76530838
Pt      66.44209588      80.23320630      71.99090422
Pt      65.05489380      78.27140630      73.37810630
Pt      67.82929797      78.27140630      73.37810630
Pt      66.44209588      80.23320630      74.76530838
Pt      66.44209588      76.30960630      71.99090422
Pt      65.05489380      74.34780630      73.37810630
Pt      67.82929797      74.34780630      73.37810630
Pt      66.44209588      76.30960630      74.76530838
Pt      66.44209588      72.38600630      71.99090422
Pt      65.05489380      70.42420630      73.37810630
Pt      67.82929797      70.42420630      73.37810630
Pt      66.44209588      72.38600630      74.76530838
Pt      66.44209588      68.46240630      71.99090422
Pt      65.05489380      66.50060630      73.37810630
Pt      67.82929797      66.50060630      73.37810630
Pt      66.44209588      68.46240630      74.76530838
Pt      66.44209588      64.53880630      71.99090422
Pt      65.05489380      62.57700630      73.37810630
Pt      67.82929797      62.57700630      73.37810630
Pt      66.44209588      64.53880630      74.76530838
Pt      66.44209588      60.61520630      71.99090422
Pt      65.05489380      58.65340630      73.37810630
Pt      67.82929797      58.65340630      73.37810630
Pt      66.44209588      60.61520630      74.76530838
Pt      66.44209588      56.69160630      71.99090422
Pt      65.05489380      54.72980630      73.37810630
Pt      67.82929797      54.72980630      73.37810630
Pt      66.44209588      56.69160630      74.76530838
Pt      66.44209588      52.76800630      71.99090422
Pt      66.44209588      52.76800630      74.76530838
Pt      65.05489380      97.88940630      76.15251047
Pt      63.66769172      95.92760630      74.76530838
Pt      62.28048963      93.96580630      76.15251047
Pt      65.05489380      93.96580630      76.15251047
Pt      63.66769172      95.92760630      77.53971255
Pt      63.66769172      92.00400630      74.76530838
Pt      62.28048963      90.04220630      76.15251047
Pt      65.05489380      90.04220630      76.15251047
Pt      63.66769172      92.00400630      77.53971255
Pt      63.66769172      88.08040630      74.76530838
Pt      62.28048963      86.11860630      76.15251047
Pt      65.05489380      86.11860630      76.15251047
Pt      63.66769172      88.08040630      77.53971255
Pt      63.66769172      84.15680630      74.76530838
Pt      62.28048963      82.19500630      76.15251047
Pt      65.05489380      82.19500630      76.15251047
Pt      63.66769172      84.15680630      77.53971255
Pt      63.66769172      80.23320630      74.76530838
Pt      62.28048963      78.27140630      76.15251047
Pt      65.05489380      78.27140630      76.15251047
Pt      63.66769172      80.23320630      77.53971255
Pt      63.66769172      76.30960630      74.76530838
Pt      62.28048963      74.34780630      76.15251047
Pt      65.05489380      74.34780630      76.15251047
Pt      63.66769172      76.30960630      77.53971255
Pt      63.66769172      72.38600630      74.76530838
Pt      62.28048963      70.42420630      76.15251047
Pt      65.05489380      70.42420630      76.15251047
Pt      63.66769172      72.38600630      77.53971255
Pt      63.66769172      68.46240630      74.76530838
Pt      62.28048963      66.50060630      76.15251047
Pt      65.05489380      66.50060630      76.15251047
Pt      63.66769172      68.46240630      77.53971255
Pt      63.66769172      64.53880630      74.76530838
Pt      62.28048963      62.57700630      76.15251047
Pt      65.05489380      62.57700630      76.15251047
Pt      63.66769172      64.53880630      77.53971255
Pt      63.66769172      60.61520630      74.76530838
Pt      62.28048963      58.65340630      76.15251047
Pt      65.05489380      58.65340630      76.15251047
Pt      63.66769172      60.61520630      77.53971255
Pt      63.66769172      56.69160630      74.76530838
Pt      65.05489380      54.72980630      76.15251047
Pt      63.66769172      56.69160630      77.53971255
Pt      62.28048963      93.96580630      78.92691463
Pt      60.89328755      92.00400630      77.53971255
Pt      59.50608547      90.04220630      78.92691463
Pt      62.28048963      90.04220630      78.92691463
Pt      60.89328755      92.00400630      80.31411672
Pt      60.89328755      88.08040630      77.53971255
Pt      59.50608547      86.11860630      78.92691463
Pt      62.28048963      86.11860630      78.92691463
Pt      60.89328755      88.08040630      80.31411672
Pt      60.89328755      84.15680630      77.53971255
Pt      59.50608547      82.19500630      78.92691463
Pt      62.28048963      82.19500630      78.92691463
Pt      60.89328755      84.15680630      80.31411672
Pt      60.89328755      80.23320630      77.53971255
Pt      59.50608547      78.27140630      78.92691463
Pt      62.28048963      78.27140630      78.92691463
Pt      60.89328755      80.23320630      80.31411672
Pt      60.89328755      76.30960630      77.53971255
Pt      59.50608547      74.34780630      78.92691463
Pt      62.28048963      74.34780630      78.92691463
Pt      60.89328755      76.30960630      80.31411672
Pt      60.89328755      72.38600630      77.53971255
Pt      59.50608547      70.42420630      78.92691463
Pt      62.28048963      70.42420630      78.92691463
Pt      60.89328755      72.38600630      80.31411672
Pt      60.89328755      68.46240630      77.53971255
Pt      59.50608547      66.50060630      78.92691463
Pt      62.28048963      66.50060630      78.92691463
Pt      60.89328755      68.46240630      80.31411672
Pt      60.89328755      64.53880630      77.53971255
Pt      59.50608547      62.57700630      78.92691463
Pt      62.28048963      62.57700630      78.92691463
Pt      60.89328755      64.53880630      80.31411672
Pt      60.89328755      60.61520630      77.53971255
Pt      62.28048963      58.65340630      78.92691463
Pt      60.89328755      60.61520630      80.31411672
Pt      59.50608547      90.04220630      81.70131880
Pt      58.11888338      88.08040630      80.31411672
Pt      56.73168130      86.11860630      81.70131880
Pt      59.50608547      86.11860630      81.70131880
Pt      58.11888338      88.08040630      83.08852088
Pt      58.11888338      84.15680630      80.31411672
Pt      56.73168130      82.19500630      81.70131880
Pt      59.50608547      82.19500630      81.70131880
Pt      58.11888338      84.15680630      83.08852088
Pt      58.11888338      80.23320630      80.31411672
Pt      56.73168130      78.27140630      81.70131880
Pt      59.50608547      78.27140630      81.70131880
Pt      58.11888338      80.23320630      83.08852088
Pt      58.11888338      76.30960630      80.31411672
Pt      56.73168130      74.34780630      81.70131880
Pt      59.50608547      74.34780630      81.70131880
Pt      58.11888338      76.30960630      83.08852088
Pt      58.11888338      72.38600630      80.31411672
Pt      56.73168130      70.42420630      81.70131880
Pt      59.50608547      70.42420630      81.70131880
Pt      58.11888338      72.38600630      83.08852088
Pt      58.11888338      68.46240630      80.31411672
Pt      56.73168130      66.50060630      81.70131880
Pt      59.50608547      66.50060630      81.70131880
Pt      58.11888338      68.46240630      83.08852088
Pt      58.11888338      64.53880630      80.31411672
Pt      59.50608547      62.57700630      81.70131880
Pt      58.11888338      64.53880630      83.08852088
Pt      56.73168130      86.11860630      84.47572297
Pt      55.34447922      84.15680630      83.08852088
Pt      53.95727713      82.19500630      84.47572297
Pt      56.73168130      82.19500630      84.47572297
Pt      55.34447922      84.15680630      85.86292505
Pt      55.34447922      80.23320630      83.08852088
Pt      53.95727713      78.27140630      84.47572297
Pt      56.73168130      78.27140630      84.47572297
Pt      55.34447922      80.23320630      85.86292505
Pt      55.34447922      76.30960630      83.08852088
Pt      53.95727713      74.34780630      84.47572297
Pt      56.73168130      74.34780630      84.47572297
Pt      55.34447922      76.30960630      85.86292505
Pt      55.34447922      72.38600630      83.08852088
Pt      53.95727713      70.42420630      84.47572297
Pt      56.73168130      70.42420630      84.47572297
Pt      55.34447922      72.38600630      85.86292505
Pt      55.34447922      68.46240630      83.08852088
Pt      56.73168130      66.50060630      84.47572297
Pt      55.34447922      68.46240630      85.86292505
Pt      53.95727713      82.19500630      87.25012713
Pt      52.57007505      80.23320630      85.86292505
Pt      53.95727713      78.27140630      87.25012713
Pt      52.57007505      76.30960630      85.86292505
Pt      53.95727713      74.34780630      87.25012713
Pt      52.57007505      76.30960630      88.63732922
Pt      52.57007505      72.38600630      85.86292505
Pt      53.95727713      70.42420630      87.25012713
Pt      90.02453130      78.27140630      53.95727713
Pt      91.41173338      80.23320630      55.34447922
Pt      90.02453130      74.34780630      53.95727713
Pt      91.41173338      76.30960630      55.34447922
Pt      91.41173338      72.38600630      55.34447922
Pt      87.25012713      86.11860630      56.73168130
Pt      90.02453130      86.11860630      56.73168130
Pt      88.63732922      88.08040630      58.11888338
Pt      88.63732922      84.15680630      55.34447922
Pt      87.25012713      82.19500630      56.73168130
Pt      90.02453130      82.19500630      56.73168130
Pt      88.63732922      84.15680630      58.11888338
Pt      88.63732922      80.23320630      55.34447922
Pt      87.25012713      78.27140630      56.73168130
Pt      90.02453130      78.27140630      56.73168130
Pt      88.63732922      80.23320630      58.11888338
Pt      88.63732922      76.30960630      55.34447922
Pt      87.25012713      74.34780630      56.73168130
Pt      90.02453130      74.34780630      56.73168130
Pt      88.63732922      76.30960630      58.11888338
Pt      88.63732922      72.38600630      55.34447922
Pt      87.25012713      70.42420630      56.73168130
Pt      90.02453130      70.42420630      56.73168130
Pt      88.63732922      72.38600630      58.11888338
Pt      88.63732922      68.46240630      55.34447922
Pt      87.25012713      66.50060630      56.73168130
Pt      90.02453130      66.50060630      56.73168130
Pt      88.63732922      68.46240630      58.11888338
Pt      88.63732922      64.53880630      58.11888338
Pt      84.47572297      90.04220630      59.50608547
Pt      87.25012713      90.04220630      59.50608547
Pt      85.86292505      92.00400630      60.89328755
Pt      85.86292505      88.08040630      58.11888338
Pt      84.47572297      86.11860630      59.50608547
Pt      87.25012713      86.11860630      59.50608547
Pt      85.86292505      88.08040630      60.89328755
Pt      85.86292505      84.15680630      58.11888338
Pt      84.47572297      82.19500630      59.50608547
Pt      87.25012713      82.19500630      59.50608547
Pt      85.86292505      84.15680630      60.89328755
Pt      85.86292505      80.23320630      58.11888338
Pt      84.47572297      78.27140630      59.50608547
Pt      87.25012713      78.27140630      59.50608547
Pt      85.86292505      80.23320630      60.89328755
Pt      85.86292505      76.30960630      58.11888338
Pt      84.47572297      74.34780630      59.50608547
Pt      87.25012713      74.34780630      59.50608547
Pt      85.86292505      76.30960630      60.89328755
Pt      85.86292505      72.38600630      58.11888338
Pt      84.47572297      70.42420630      59.50608547
Pt      87.25012713      70.42420630      59.50608547
Pt      85.86292505      72.38600630      60.89328755
Pt      85.86292505      68.46240630      58.11888338
Pt      84.47572297      66.50060630      59.50608547
Pt      87.25012713      66.50060630      59.50608547
Pt      85.86292505      68.46240630      60.89328755
Pt      85.86292505      64.53880630      58.11888338
Pt      84.47572297      62.57700630      59.50608547
Pt      87.25012713      62.57700630      59.50608547
Pt      85.86292505      64.53880630      60.89328755
Pt      85.86292505      60.61520630      60.89328755
Pt      81.70131880      93.96580630      62.28048963
Pt      84.47572297      93.96580630      62.28048963
Pt      83.08852088      95.92760630      63.66769172
Pt      83.08852088      92.00400630      60.89328755
Pt      81.70131880      90.04220630      62.28048963
Pt      84.47572297      90.04220630      62.28048963
Pt      83.08852088      92.00400630      63.66769172
Pt      83.08852088      88.08040630      60.89328755
Pt      81.70131880      86.11860630      62.28048963
Pt      84.47572297      86.11860630      62.28048963
Pt      83.08852088      88.08040630      63.66769172
Pt      83.08852088      84.15680630      60.89328755
Pt      81.70131880      82.19500630      62.28048963
Pt      84.47572297      82.19500630      62.28048963
Pt      83.08852088      84.15680630      63.66769172
Pt      83.08852088      80.23320630      60.89328755
Pt      81.70131880      78.27140630      62.28048963
Pt      84.47572297      78.27140630      62.28048963
Pt      83.08852088      80.23320630      63.66769172
Pt      83.08852088      76.30960630      60.89328755
Pt      81.70131880      74.34780630      62.28048963
Pt      84.47572297      74.34780630      62.28048963
Pt      83.08852088      76.30960630      63.66769172
Pt      83.08852088      72.38600630      60.89328755
Pt      81.70131880      70.42420630      62.28048963
Pt      84.47572297      70.42420630      62.28048963
Pt      83.08852088      72.38600630      63.66769172
Pt      83.08852088      68.46240630      60.89328755
Pt      81.70131880      66.50060630      62.28048963
Pt      84.47572297      66.50060630      62.28048963
Pt      83.08852088      68.46240630      63.66769172
Pt      83.08852088      64.53880630      60.89328755
Pt      81.70131880      62.57700630      62.28048963
Pt      84.47572297      62.57700630      62.28048963
Pt      83.08852088      64.53880630      63.66769172
Pt      83.08852088      60.61520630      60.89328755
Pt      81.70131880      58.65340630      62.28048963
Pt      84.47572297      58.65340630      62.28048963
Pt      83.08852088      60.61520630      63.66769172
Pt      83.08852088      56.69160630      63.66769172
Pt      78.92691463      97.88940630      65.05489380
Pt      81.70131880      97.88940630      65.05489380
Pt      80.31411672      99.85120630      66.44209588
Pt      80.31411672      95.92760630      63.66769172
Pt      78.92691463      93.96580630      65.05489380
Pt      81.70131880      93.96580630      65.05489380
Pt      80.31411672      95.92760630      66.44209588
Pt      80.31411672      92.00400630      63.66769172
Pt      78.92691463      90.04220630      65.05489380
Pt      81.70131880      90.04220630      65.05489380
Pt      80.31411672      92.00400630      66.44209588
Pt      80.31411672      88.08040630      63.66769172
Pt      78.92691463      86.11860630      65.05489380
Pt      81.70131880      86.11860630      65.05489380
Pt      80.31411672      88.08040630      66.44209588
Pt      80.31411672      84.15680630      63.66769172
Pt      78.92691463      82.19500630      65.05489380
Pt      81.70131880      82.19500630      65.05489380
Pt      80.31411672      84.15680630      66.44209588
Pt      80.31411672      80.23320630      63.66769172
Pt      78.92691463      78.27140630      65.05489380
Pt      81.70131880      78.27140630      65.05489380
Pt      80.31411672      80.23320630      66.44209588
Pt      80.31411672      76.30960630      63.66769172
Pt      78.92691463      74.34780630      65.05489380
Pt      81.70131880      74.34780630      65.05489380
Pt      80.31411672      76.30960630      66.44209588
Pt      80.31411672      72.38600630      63.66769172
Pt      78.92691463      70.42420630      65.05489380
Pt      81.70131880      70.42420630      65.05489380
Pt      80.31411672      72.38600630      66.44209588
Pt      80.31411672      68.46240630      63.66769172
Pt      78.92691463      66.50060630      65.05489380
Pt      81.70131880      66.50060630      65.05489380
Pt      80.31411672      68.46240630      66.44209588
Pt      80.31411672      64.53880630      63.66769172
Pt      78.92691463      62.57700630      65.05489380
Pt      81.70131880      62.57700630      65.05489380
Pt      80.31411672      64.53880630      66.44209588
Pt      80.31411672      60.61520630      63.66769172
Pt      78.92691463      58.65340630      65.05489380
Pt      81.70131880      58.65340630      65.05489380
Pt      80.31411672      60.61520630      66.44209588
Pt      80.31411672      56.69160630      63.66769172
Pt      78.92691463      54.72980630      65.05489380
Pt      81.70131880      54.72980630      65.05489380
Pt      80.31411672      56.69160630      66.44209588
Pt      80.31411672      52.76800630      66.44209588
Pt      77.53971255      99.85120630      66.44209588
Pt      76.15251047      97.88940630      67.82929797
Pt      78.92691463      97.88940630      67.82929797
Pt      77.53971255      99.85120630      69.21650005
Pt      77.53971255      95.92760630      66.44209588
Pt      76.15251047      93.96580630      67.82929797
Pt      78.92691463      93.96580630      67.82929797
Pt      77.53971255      95.92760630      69.21650005
Pt      77.53971255      92.00400630      66.44209588
Pt      76.15251047      90.04220630      67.82929797
Pt      78.92691463      90.04220630      67.82929797
Pt      77.53971255      92.00400630      69.21650005
Pt      77.53971255      88.08040630      66.44209588
Pt      76.15251047      86.11860630      67.82929797
Pt      78.92691463      86.11860630      67.82929797
Pt      77.53971255      88.08040630      69.21650005
Pt      77.53971255      84.15680630      66.44209588
Pt      76.15251047      82.19500630      67.82929797
Pt      78.92691463      82.19500630      67.82929797
Pt      77.53971255      84.15680630      69.21650005
Pt      77.53971255      80.23320630      66.44209588
Pt      76.15251047      78.27140630      67.82929797
Pt      78.92691463      78.27140630      67.82929797
Pt      77.53971255      80.23320630      69.21650005
Pt      77.53971255      76.30960630      66.44209588
Pt      76.15251047      74.34780630      67.82929797
Pt      78.92691463      74.34780630      67.82929797
Pt      77.53971255      76.30960630      69.21650005
Pt      77.53971255      72.38600630      66.44209588
Pt      76.15251047      70.42420630      67.82929797
Pt      78.92691463      70.42420630      67.82929797
Pt      77.53971255      72.38600630      69.21650005
Pt      77.53971255      68.46240630      66.44209588
Pt      76.15251047      66.50060630      67.82929797
Pt      78.92691463      66.50060630      67.82929797
Pt      77.53971255      68.46240630      69.21650005
Pt      77.53971255      64.53880630      66.44209588
Pt      76.15251047      62.57700630      67.82929797
Pt      78.92691463      62.57700630      67.82929797
Pt      77.53971255      64.53880630      69.21650005
Pt      77.53971255      60.61520630      66.44209588
Pt      76.15251047      58.65340630      67.82929797
Pt      78.92691463      58.65340630      67.82929797
Pt      77.53971255      60.61520630      69.21650005
Pt      77.53971255      56.69160630      66.44209588
Pt      76.15251047      54.72980630      67.82929797
Pt      78.92691463      54.72980630      67.82929797
Pt      77.53971255      56.69160630      69.21650005
Pt      77.53971255      52.76800630      66.44209588
Pt      77.53971255      52.76800630      69.21650005
Pt      73.37810630     101.81300630      70.60370213
Pt      76.15251047     101.81300630      70.60370213
Pt      74.76530838      99.85120630      69.21650005
Pt      73.37810630      97.88940630      70.60370213
Pt      76.15251047      97.88940630      70.60370213
Pt      74.76530838      99.85120630      71.99090422
Pt      74.76530838      95.92760630      69.21650005
Pt      73.37810630      93.96580630      70.60370213
Pt      76.15251047      93.96580630      70.60370213
Pt      74.76530838      95.92760630      71.99090422
Pt      74.76530838      92.00400630      69.21650005
Pt      73.37810630      90.04220630      70.60370213
Pt      76.15251047      90.04220630      70.60370213
Pt      74.76530838      92.00400630      71.99090422
Pt      74.76530838      88.08040630      69.21650005
Pt      73.37810630      86.11860630      70.60370213
Pt      76.15251047      86.11860630      70.60370213
Pt      74.76530838      88.08040630      71.99090422
Pt      74.76530838      84.15680630      69.21650005
Pt      73.37810630      82.19500630      70.60370213
Pt      76.15251047      82.19500630      70.60370213
Pt      74.76530838      84.15680630      71.99090422
Pt      74.76530838      80.23320630      69.21650005
Pt      73.37810630      78.27140630      70.60370213
Pt      76.15251047      78.27140630      70.60370213
Pt      74.76530838      80.23320630      71.99090422
Pt      74.76530838      76.30960630      69.21650005
Pt      73.37810630      74.34780630      70.60370213
Pt      76.15251047      74.34780630      70.60370213
Pt      74.76530838      76.30960630      71.99090422
Pt      74.76530838      72.38600630      69.21650005
Pt      73.37810630      70.42420630      70.60370213
Pt      76.15251047      70.42420630      70.60370213
Pt      74.76530838      72.38600630      71.99090422
Pt      74.76530838      68.46240630      69.21650005
Pt      73.37810630      66.50060630      70.60370213
Pt      76.15251047      66.50060630      70.60370213
Pt      74.76530838      68.46240630      71.99090422
Pt      74.76530838      64.53880630      69.21650005
Pt      73.37810630      62.57700630      70.60370213
Pt      76.15251047      62.57700630      70.60370213
Pt      74.76530838      64.53880630      71.99090422
Pt      74.76530838      60.61520630      69.21650005
Pt      73.37810630      58.65340630      70.60370213
Pt      76.15251047      58.65340630      70.60370213
Pt      74.76530838      60.61520630      71.99090422
Pt      74.76530838      56.69160630      69.21650005
Pt      73.37810630      54.72980630      70.60370213
Pt      76.15251047      54.72980630      70.60370213
Pt      74.76530838      56.69160630      71.99090422
Pt      74.76530838      52.76800630      69.21650005
Pt      73.37810630      50.80620630      70.60370213
Pt      76.15251047      50.80620630      70.60370213
Pt      74.76530838      52.76800630      71.99090422
Pt      70.60370213     101.81300630      73.37810630
Pt      73.37810630     101.81300630      73.37810630
Pt      71.99090422      99.85120630      71.99090422
Pt      70.60370213      97.88940630      73.37810630
Pt      73.37810630      97.88940630      73.37810630
Pt      71.99090422      99.85120630      74.76530838
Pt      71.99090422      95.92760630      71.99090422
Pt      70.60370213      93.96580630      73.37810630
Pt      73.37810630      93.96580630      73.37810630
Pt      71.99090422      95.92760630      74.76530838
Pt      71.99090422      92.00400630      71.99090422
Pt      70.60370213      90.04220630      73.37810630
Pt      73.37810630      90.04220630      73.37810630
Pt      71.99090422      92.00400630      74.76530838
Pt      71.99090422      88.08040630      71.99090422
Pt      70.60370213      86.11860630      73.37810630
Pt      73.37810630      86.11860630      73.37810630
Pt      71.99090422      88.08040630      74.76530838
Pt      71.99090422      84.15680630      71.99090422
Pt      70.60370213      82.19500630      73.37810630
Pt      73.37810630      82.19500630      73.37810630
Pt      71.99090422      84.15680630      74.76530838
Pt      71.99090422      80.23320630      71.99090422
Pt      70.60370213      78.27140630      73.37810630
Pt      73.37810630      78.27140630      73.37810630
Pt      71.99090422      80.23320630      74.76530838
Pt      71.99090422      76.30960630      71.99090422
Pt      70.60370213      74.34780630      73.37810630
Pt      73.37810630      74.34780630      73.37810630
Pt      71.99090422      76.30960630      74.76530838
Pt      71.99090422      72.38600630      71.99090422
Pt      70.60370213      70.42420630      73.37810630
Pt      73.37810630      70.42420630      73.37810630
Pt      71.99090422      72.38600630      74.76530838
Pt      71.99090422      68.46240630      71.99090422
Pt      70.60370213      66.50060630      73.37810630
Pt      73.37810630      66.50060630      73.37810630
Pt      71.99090422      68.46240630      74.76530838
Pt      71.99090422      64.53880630      71.99090422
Pt      70.60370213      62.57700630      73.37810630
Pt      73.37810630      62.57700630      73.37810630
Pt      71.99090422      64.53880630      74.76530838
Pt      71.99090422      60.61520630      71.99090422
Pt      70.60370213      58.65340630      73.37810630
Pt      73.37810630      58.65340630      73.37810630
Pt      71.99090422      60.61520630      74.76530838
Pt      71.99090422      56.69160630      71.99090422
Pt      70.60370213      54.72980630      73.37810630
Pt      73.37810630      54.72980630      73.37810630
Pt      71.99090422      56.69160630      74.76530838
Pt      71.99090422      52.76800630      71.99090422
Pt      70.60370213      50.80620630      73.37810630
Pt      73.37810630      50.80620630      73.37810630
Pt      71.99090422      52.76800630      74.76530838
Pt      70.60370213     101.81300630      76.15251047
Pt      69.21650005      99.85120630      74.76530838
Pt      67.82929797      97.88940630      76.15251047
Pt      70.60370213      97.88940630      76.15251047
Pt      69.21650005      99.85120630      77.53971255
Pt      69.21650005      95.92760630      74.76530838
Pt      67.82929797      93.96580630      76.15251047
Pt      70.60370213      93.96580630      76.15251047
Pt      69.21650005      95.92760630      77.53971255
Pt      69.21650005      92.00400630      74.76530838
Pt      67.82929797      90.04220630      76.15251047
Pt      70.60370213      90.04220630      76.15251047
Pt      69.21650005      92.00400630      77.53971255
Pt      69.21650005      88.08040630      74.76530838
Pt      67.82929797      86.11860630      76.15251047
Pt      70.60370213      86.11860630      76.15251047
Pt      69.21650005      88.08040630      77.53971255
Pt      69.21650005      84.15680630      74.76530838
Pt      67.82929797      82.19500630      76.15251047
Pt      70.60370213      82.19500630      76.15251047
Pt      69.21650005      84.15680630      77.53971255
Pt      69.21650005      80.23320630      74.76530838
Pt      67.82929797      78.27140630      76.15251047
Pt      70.60370213      78.27140630      76.15251047
Pt      69.21650005      80.23320630      77.53971255
Pt      69.21650005      76.30960630      74.76530838
Pt      67.82929797      74.34780630      76.15251047
Pt      70.60370213      74.34780630      76.15251047
Pt      69.21650005      76.30960630      77.53971255
Pt      69.21650005      72.38600630      74.76530838
Pt      67.82929797      70.42420630      76.15251047
Pt      70.60370213      70.42420630      76.15251047
Pt      69.21650005      72.38600630      77.53971255
Pt      69.21650005      68.46240630      74.76530838
Pt      67.82929797      66.50060630      76.15251047
Pt      70.60370213      66.50060630      76.15251047
Pt      69.21650005      68.46240630      77.53971255
Pt      69.21650005      64.53880630      74.76530838
Pt      67.82929797      62.57700630      76.15251047
Pt      70.60370213      62.57700630      76.15251047
Pt      69.21650005      64.53880630      77.53971255
Pt      69.21650005      60.61520630      74.76530838
Pt      67.82929797      58.65340630      76.15251047
Pt      70.60370213      58.65340630      76.15251047
Pt      69.21650005      60.61520630      77.53971255
Pt      69.21650005      56.69160630      74.76530838
Pt      67.82929797      54.72980630      76.15251047
Pt      70.60370213      54.72980630      76.15251047
Pt      69.21650005      56.69160630      77.53971255
Pt      69.21650005      52.76800630      74.76530838
Pt      70.60370213      50.80620630      76.15251047
Pt      69.21650005      52.76800630      77.53971255
Pt      66.44209588      99.85120630      77.53971255
Pt      65.05489380      97.88940630      78.92691463
Pt      67.82929797      97.88940630      78.92691463
Pt      66.44209588      99.85120630      80.31411672
Pt      66.44209588      95.92760630      77.53971255
Pt      65.05489380      93.96580630      78.92691463
Pt      67.82929797      93.96580630      78.92691463
Pt      66.44209588      95.92760630      80.31411672
Pt      66.44209588      92.00400630      77.53971255
Pt      65.05489380      90.04220630      78.92691463
Pt      67.82929797      90.04220630      78.92691463
Pt      66.44209588      92.00400630      80.31411672
Pt      66.44209588      88.08040630      77.53971255
Pt      65.05489380      86.11860630      78.92691463
Pt      67.82929797      86.11860630      78.92691463
Pt      66.44209588      88.08040630      80.31411672
Pt      66.44209588      84.15680630      77.53971255
Pt      65.05489380      82.19500630      78.92691463
Pt      67.82929797      82.19500630      78.92691463
Pt      66.44209588      84.15680630      80.31411672
Pt      66.44209588      80.23320630      77.53971255
Pt      65.05489380      78.27140630      78.92691463
Pt      67.82929797      78.27140630      78.92691463
Pt      66.44209588      80.23320630      80.31411672
Pt      66.44209588      76.30960630      77.53971255
Pt      65.05489380      74.34780630      78.92691463
Pt      67.82929797      74.34780630      78.92691463
Pt      66.44209588      76.30960630      80.31411672
Pt      66.44209588      72.38600630      77.53971255
Pt      65.05489380      70.42420630      78.92691463
Pt      67.82929797      70.42420630      78.92691463
Pt      66.44209588      72.38600630      80.31411672
Pt      66.44209588      68.46240630      77.53971255
Pt      65.05489380      66.50060630      78.92691463
Pt      67.82929797      66.50060630      78.92691463
Pt      66.44209588      68.46240630      80.31411672
Pt      66.44209588      64.53880630      77.53971255
Pt      65.05489380      62.57700630      78.92691463
Pt      67.82929797      62.57700630      78.92691463
Pt      66.44209588      64.53880630      80.31411672
Pt      66.44209588      60.61520630      77.53971255
Pt      65.05489380      58.65340630      78.92691463
Pt      67.82929797      58.65340630      78.92691463
Pt      66.44209588      60.61520630      80.31411672
Pt      66.44209588      56.69160630      77.53971255
Pt      65.05489380      54.72980630      78.92691463
Pt      67.82929797      54.72980630      78.92691463
Pt      66.44209588      56.69160630      80.31411672
Pt      66.44209588      52.76800630      77.53971255
Pt      66.44209588      52.76800630      80.31411672
Pt      65.05489380      97.88940630      81.70131880
Pt      63.66769172      95.92760630      80.31411672
Pt      62.28048963      93.96580630      81.70131880
Pt      65.05489380      93.96580630      81.70131880
Pt      63.66769172      95.92760630      83.08852088
Pt      63.66769172      92.00400630      80.31411672
Pt      62.28048963      90.04220630      81.70131880
Pt      65.05489380      90.04220630      81.70131880
Pt      63.66769172      92.00400630      83.08852088
Pt      63.66769172      88.08040630      80.31411672
Pt      62.28048963      86.11860630      81.70131880
Pt      65.05489380      86.11860630      81.70131880
Pt      63.66769172      88.08040630      83.08852088
Pt      63.66769172      84.15680630      80.31411672
Pt      62.28048963      82.19500630      81.70131880
Pt      65.05489380      82.19500630      81.70131880
Pt      63.66769172      84.15680630      83.08852088
Pt      63.66769172      80.23320630      80.31411672
Pt      62.28048963      78.27140630      81.70131880
Pt      65.05489380      78.27140630      81.70131880
Pt      63.66769172      80.23320630      83.08852088
Pt      63.66769172      76.30960630      80.31411672
Pt      62.28048963      74.34780630      81.70131880
Pt      65.05489380      74.34780630      81.70131880
Pt      63.66769172      76.30960630      83.08852088
Pt      63.66769172      72.38600630      80.31411672
Pt      62.28048963      70.42420630      81.70131880
Pt      65.05489380      70.42420630      81.70131880
Pt      63.66769172      72.38600630      83.08852088
Pt      63.66769172      68.46240630      80.31411672
Pt      62.28048963      66.50060630      81.70131880
Pt      65.05489380      66.50060630      81.70131880
Pt      63.66769172      68.46240630      83.08852088
Pt      63.66769172      64.53880630      80.31411672
Pt      62.28048963      62.57700630      81.70131880
Pt      65.05489380      62.57700630      81.70131880
Pt      63.66769172      64.53880630      83.08852088
Pt      63.66769172      60.61520630      80.31411672
Pt      62.28048963      58.65340630      81.70131880
Pt      65.05489380      58.65340630      81.70131880
Pt      63.66769172      60.61520630      83.08852088
Pt      63.66769172      56.69160630      80.31411672
Pt      65.05489380      54.72980630      81.70131880
Pt      63.66769172      56.69160630      83.08852088
Pt      62.28048963      93.96580630      84.47572297
Pt      60.89328755      92.00400630      83.08852088
Pt      59.50608547      90.04220630      84.47572297
Pt      62.28048963      90.04220630      84.47572297
Pt      60.89328755      92.00400630      85.86292505
Pt      60.89328755      88.08040630      83.08852088
Pt      59.50608547      86.11860630      84.47572297
Pt      62.28048963      86.11860630      84.47572297
Pt      60.89328755      88.08040630      85.86292505
Pt      60.89328755      84.15680630      83.08852088
Pt      59.50608547      82.19500630      84.47572297
Pt      62.28048963      82.19500630      84.47572297
Pt      60.89328755      84.15680630      85.86292505
Pt      60.89328755      80.23320630      83.08852088
Pt      59.50608547      78.27140630      84.47572297
Pt      62.28048963      78.27140630      84.47572297
Pt      60.89328755      80.23320630      85.86292505
Pt      60.89328755      76.30960630      83.08852088
Pt      59.50608547      74.34780630      84.47572297
Pt      62.28048963      74.34780630      84.47572297
Pt      60.89328755      76.30960630      85.86292505
Pt      60.89328755      72.38600630      83.08852088
Pt      59.50608547      70.42420630      84.47572297
Pt      62.28048963      70.42420630      84.47572297
Pt      60.89328755      72.38600630      85.86292505
Pt      60.89328755      68.46240630      83.08852088
Pt      59.50608547      66.50060630      84.47572297
Pt      62.28048963      66.50060630      84.47572297
Pt      60.89328755      68.46240630      85.86292505
Pt      60.89328755      64.53880630      83.08852088
Pt      59.50608547      62.57700630      84.47572297
Pt      62.28048963      62.57700630      84.47572297
Pt      60.89328755      64.53880630      85.86292505
Pt      60.89328755      60.61520630      83.08852088
Pt      62.28048963      58.65340630      84.47572297
Pt      60.89328755      60.61520630      85.86292505
Pt      59.50608547      90.04220630      87.25012713
Pt      58.11888338      88.08040630      85.86292505
Pt      56.73168130      86.11860630      87.25012713
Pt      59.50608547      86.11860630      87.25012713
Pt      58.11888338      88.08040630      88.63732922
Pt      58.11888338      84.15680630      85.86292505
Pt      56.73168130      82.19500630      87.25012713
Pt      59.50608547      82.19500630      87.25012713
Pt      58.11888338      84.15680630      88.63732922
Pt      58.11888338      80.23320630      85.86292505
Pt      56.73168130      78.27140630      87.25012713
Pt      59.50608547      78.27140630      87.25012713
Pt      58.11888338      80.23320630      88.63732922
Pt      58.11888338      76.30960630      85.86292505
Pt      56.73168130      74.34780630      87.25012713
Pt      59.50608547      74.34780630      87.25012713
Pt      58.11888338      76.30960630      88.63732922
Pt      58.11888338      72.38600630      85.86292505
Pt      56.73168130      70.42420630      87.25012713
Pt      59.50608547      70.42420630      87.25012713
Pt      58.11888338      72.38600630      88.63732922
Pt      58.11888338      68.46240630      85.86292505
Pt      56.73168130      66.50060630      87.25012713
Pt      59.50608547      66.50060630      87.25012713
Pt      58.11888338      68.46240630      88.63732922
Pt      58.11888338      64.53880630      85.86292505
Pt      59.50608547      62.57700630      87.25012713
Pt      58.11888338      64.53880630      88.63732922
Pt      56.73168130      86.11860630      90.02453130
Pt      55.34447922      84.15680630      88.63732922
Pt      56.73168130      82.19500630      90.02453130
Pt      55.34447922      80.23320630      88.63732922
Pt      53.95727713      78.27140630      90.02453130
Pt      56.73168130      78.27140630      90.02453130
Pt      55.34447922      80.23320630      91.41173338
Pt      55.34447922      76.30960630      88.63732922
Pt      53.95727713      74.34780630      90.02453130
Pt      56.73168130      74.34780630      90.02453130
Pt      55.34447922      76.30960630      91.41173338
Pt      55.34447922      72.38600630      88.63732922
Pt      56.73168130      70.42420630      90.02453130
Pt      55.34447922      72.38600630      91.41173338
Pt      55.34447922      68.46240630      88.63732922
Pt      56.73168130      66.50060630      90.02453130
Pt      92.79893547      82.19500630      56.73168130
Pt      92.79893547      78.27140630      56.73168130
Pt      94.18613755      80.23320630      58.11888338
Pt      92.79893547      74.34780630      56.73168130
Pt      94.18613755      76.30960630      58.11888338
Pt      92.79893547      70.42420630      56.73168130
Pt      94.18613755      72.38600630      58.11888338
Pt      90.02453130      86.11860630      59.50608547
Pt      92.79893547      86.11860630      59.50608547
Pt      91.41173338      88.08040630      60.89328755
Pt      91.41173338      84.15680630      58.11888338
Pt      90.02453130      82.19500630      59.50608547
Pt      92.79893547      82.19500630      59.50608547
Pt      91.41173338      84.15680630      60.89328755
Pt      91.41173338      80.23320630      58.11888338
Pt      90.02453130      78.27140630      59.50608547
Pt      92.79893547      78.27140630      59.50608547
Pt      91.41173338      80.23320630      60.89328755
Pt      91.41173338      76.30960630      58.11888338
Pt      90.02453130      74.34780630      59.50608547
Pt      92.79893547      74.34780630      59.50608547
Pt      91.41173338      76.30960630      60.89328755
Pt      91.41173338      72.38600630      58.11888338
Pt      90.02453130      70.42420630      59.50608547
Pt      92.79893547      70.42420630      59.50608547
Pt      91.41173338      72.38600630      60.89328755
Pt      91.41173338      68.46240630      58.11888338
Pt      90.02453130      66.50060630      59.50608547
Pt      92.79893547      66.50060630      59.50608547
Pt      91.41173338      68.46240630      60.89328755
Pt      91.41173338      64.53880630      60.89328755
Pt      87.25012713      90.04220630      62.28048963
Pt      90.02453130      90.04220630      62.28048963
Pt      88.63732922      92.00400630      63.66769172
Pt      88.63732922      88.08040630      60.89328755
Pt      87.25012713      86.11860630      62.28048963
Pt      90.02453130      86.11860630      62.28048963
Pt      88.63732922      88.08040630      63.66769172
Pt      88.63732922      84.15680630      60.89328755
Pt      87.25012713      82.19500630      62.28048963
Pt      90.02453130      82.19500630      62.28048963
Pt      88.63732922      84.15680630      63.66769172
Pt      88.63732922      80.23320630      60.89328755
Pt      87.25012713      78.27140630      62.28048963
Pt      90.02453130      78.27140630      62.28048963
Pt      88.63732922      80.23320630      63.66769172
Pt      88.63732922      76.30960630      60.89328755
Pt      87.25012713      74.34780630      62.28048963
Pt      90.02453130      74.34780630      62.28048963
Pt      88.63732922      76.30960630      63.66769172
Pt      88.63732922      72.38600630      60.89328755
Pt      87.25012713      70.42420630      62.28048963
Pt      90.02453130      70.42420630      62.28048963
Pt      88.63732922      72.38600630      63.66769172
Pt      88.63732922      68.46240630      60.89328755
Pt      87.25012713      66.50060630      62.28048963
Pt      90.02453130      66.50060630      62.28048963
Pt      88.63732922      68.46240630      63.66769172
Pt      88.63732922      64.53880630      60.89328755
Pt      87.25012713      62.57700630      62.28048963
Pt      90.02453130      62.57700630      62.28048963
Pt      88.63732922      64.53880630      63.66769172
Pt      88.63732922      60.61520630      63.66769172
Pt      84.47572297      93.96580630      65.05489380
Pt      87.25012713      93.96580630      65.05489380
Pt      85.86292505      95.92760630      66.44209588
Pt      85.86292505      92.00400630      63.66769172
Pt      84.47572297      90.04220630      65.05489380
Pt      87.25012713      90.04220630      65.05489380
Pt      85.86292505      92.00400630      66.44209588
Pt      85.86292505      88.08040630      63.66769172
Pt      84.47572297      86.11860630      65.05489380
Pt      87.25012713      86.11860630      65.05489380
Pt      85.86292505      88.08040630      66.44209588
Pt      85.86292505      84.15680630      63.66769172
Pt      84.47572297      82.19500630      65.05489380
Pt      87.25012713      82.19500630      65.05489380
Pt      85.86292505      84.15680630      66.44209588
Pt      85.86292505      80.23320630      63.66769172
Pt      84.47572297      78.27140630      65.05489380
Pt      87.25012713      78.27140630      65.05489380
Pt      85.86292505      80.23320630      66.44209588
Pt      85.86292505      76.30960630      63.66769172
Pt      84.47572297      74.34780630      65.05489380
Pt      87.25012713      74.34780630      65.05489380
Pt      85.86292505      76.30960630      66.44209588
Pt      85.86292505      72.38600630      63.66769172
Pt      84.47572297      70.42420630      65.05489380
Pt      87.25012713      70.42420630      65.05489380
Pt      85.86292505      72.38600630      66.44209588
Pt      85.86292505      68.46240630      63.66769172
Pt      84.47572297      66.50060630      65.05489380
Pt      87.25012713      66.50060630      65.05489380
Pt      85.86292505      68.46240630      66.44209588
Pt      85.86292505      64.53880630      63.66769172
Pt      84.47572297      62.57700630      65.05489380
Pt      87.25012713      62.57700630      65.05489380
Pt      85.86292505      64.53880630      66.44209588
Pt      85.86292505      60.61520630      63.66769172
Pt      84.47572297      58.65340630      65.05489380
Pt      87.25012713      58.65340630      65.05489380
Pt      85.86292505      60.61520630      66.44209588
Pt      85.86292505      56.69160630      66.44209588
Pt      81.70131880      97.88940630      67.82929797
Pt      84.47572297      97.88940630      67.82929797
Pt      83.08852088      99.85120630      69.21650005
Pt      83.08852088      95.92760630      66.44209588
Pt      81.70131880      93.96580630      67.82929797
Pt      84.47572297      93.96580630      67.82929797
Pt      83.08852088      95.92760630      69.21650005
Pt      83.08852088      92.00400630      66.44209588
Pt      81.70131880      90.04220630      67.82929797
Pt      84.47572297      90.04220630      67.82929797
Pt      83.08852088      92.00400630      69.21650005
Pt      83.08852088      88.08040630      66.44209588
Pt      81.70131880      86.11860630      67.82929797
Pt      84.47572297      86.11860630      67.82929797
Pt      83.08852088      88.08040630      69.21650005
Pt      83.08852088      84.15680630      66.44209588
Pt      81.70131880      82.19500630      67.82929797
Pt      84.47572297      82.19500630      67.82929797
Pt      83.08852088      84.15680630      69.21650005
Pt      83.08852088      80.23320630      66.44209588
Pt      81.70131880      78.27140630      67.82929797
Pt      84.47572297      78.27140630      67.82929797
Pt      83.08852088      80.23320630      69.21650005
Pt      83.08852088      76.30960630      66.44209588
Pt      81.70131880      74.34780630      67.82929797
Pt      84.47572297      74.34780630      67.82929797
Pt      83.08852088      76.30960630      69.21650005
Pt      83.08852088      72.38600630      66.44209588
Pt      81.70131880      70.42420630      67.82929797
Pt      84.47572297      70.42420630      67.82929797
Pt      83.08852088      72.38600630      69.21650005
Pt      83.08852088      68.46240630      66.44209588
Pt      81.70131880      66.50060630      67.82929797
Pt      84.47572297      66.50060630      67.82929797
Pt      83.08852088      68.46240630      69.21650005
Pt      83.08852088      64.53880630      66.44209588
Pt      81.70131880      62.57700630      67.82929797
Pt      84.47572297      62.57700630      67.82929797
Pt      83.08852088      64.53880630      69.21650005
Pt      83.08852088      60.61520630      66.44209588
Pt      81.70131880      58.65340630      67.82929797
Pt      84.47572297      58.65340630      67.82929797
Pt      83.08852088      60.61520630      69.21650005
Pt      83.08852088      56.69160630      66.44209588
Pt      81.70131880      54.72980630      67.82929797
Pt      84.47572297      54.72980630      67.82929797
Pt      83.08852088      56.69160630      69.21650005
Pt      83.08852088      52.76800630      69.21650005
Pt      78.92691463     101.81300630      70.60370213
Pt      80.31411672      99.85120630      69.21650005
Pt      78.92691463      97.88940630      70.60370213
Pt      81.70131880      97.88940630      70.60370213
Pt      80.31411672      99.85120630      71.99090422
Pt      80.31411672      95.92760630      69.21650005
Pt      78.92691463      93.96580630      70.60370213
Pt      81.70131880      93.96580630      70.60370213
Pt      80.31411672      95.92760630      71.99090422
Pt      80.31411672      92.00400630      69.21650005
Pt      78.92691463      90.04220630      70.60370213
Pt      81.70131880      90.04220630      70.60370213
Pt      80.31411672      92.00400630      71.99090422
Pt      80.31411672      88.08040630      69.21650005
Pt      78.92691463      86.11860630      70.60370213
Pt      81.70131880      86.11860630      70.60370213
Pt      80.31411672      88.08040630      71.99090422
Pt      80.31411672      84.15680630      69.21650005
Pt      78.92691463      82.19500630      70.60370213
Pt      81.70131880      82.19500630      70.60370213
Pt      80.31411672      84.15680630      71.99090422
Pt      80.31411672      80.23320630      69.21650005
Pt      78.92691463      78.27140630      70.60370213
Pt      81.70131880      78.27140630      70.60370213
Pt      80.31411672      80.23320630      71.99090422
Pt      80.31411672      76.30960630      69.21650005
Pt      78.92691463      74.34780630      70.60370213
Pt      81.70131880      74.34780630      70.60370213
Pt      80.31411672      76.30960630      71.99090422
Pt      80.31411672      72.38600630      69.21650005
Pt      78.92691463      70.42420630      70.60370213
Pt      81.70131880      70.42420630      70.60370213
Pt      80.31411672      72.38600630      71.99090422
Pt      80.31411672      68.46240630      69.21650005
Pt      78.92691463      66.50060630      70.60370213
Pt      81.70131880      66.50060630      70.60370213
Pt      80.31411672      68.46240630      71.99090422
Pt      80.31411672      64.53880630      69.21650005
Pt      78.92691463      62.57700630      70.60370213
Pt      81.70131880      62.57700630      70.60370213
Pt      80.31411672      64.53880630      71.99090422
Pt      80.31411672      60.61520630      69.21650005
Pt      78.92691463      58.65340630      70.60370213
Pt      81.70131880      58.65340630      70.60370213
Pt      80.31411672      60.61520630      71.99090422
Pt      80.31411672      56.69160630      69.21650005
Pt      78.92691463      54.72980630      70.60370213
Pt      81.70131880      54.72980630      70.60370213
Pt      80.31411672      56.69160630      71.99090422
Pt      80.31411672      52.76800630      69.21650005
Pt      78.92691463      50.80620630      70.60370213
Pt      80.31411672      52.76800630      71.99090422
Pt      76.15251047     101.81300630      73.37810630
Pt      78.92691463     101.81300630      73.37810630
Pt      77.53971255      99.85120630      71.99090422
Pt      76.15251047      97.88940630      73.37810630
Pt      78.92691463      97.88940630      73.37810630
Pt      77.53971255      99.85120630      74.76530838
Pt      77.53971255      95.92760630      71.99090422
Pt      76.15251047      93.96580630      73.37810630
Pt      78.92691463      93.96580630      73.37810630
Pt      77.53971255      95.92760630      74.76530838
Pt      77.53971255      92.00400630      71.99090422
Pt      76.15251047      90.04220630      73.37810630
Pt      78.92691463      90.04220630      73.37810630
Pt      77.53971255      92.00400630      74.76530838
Pt      77.53971255      88.08040630      71.99090422
Pt      76.15251047      86.11860630      73.37810630
Pt      78.92691463      86.11860630      73.37810630
Pt      77.53971255      88.08040630      74.76530838
Pt      77.53971255      84.15680630      71.99090422
Pt      76.15251047      82.19500630      73.37810630
Pt      78.92691463      82.19500630      73.37810630
Pt      77.53971255      84.15680630      74.76530838
Pt      77.53971255      80.23320630      71.99090422
Pt      76.15251047      78.27140630      73.37810630
Pt      78.92691463      78.27140630      73.37810630
Pt      77.53971255      80.23320630      74.76530838
Pt      77.53971255      76.30960630      71.99090422
Pt      76.15251047      74.34780630      73.37810630
Pt      78.92691463      74.34780630      73.37810630
Pt      77.53971255      76.30960630      74.76530838
Pt      77.53971255      72.38600630      71.99090422
Pt      76.15251047      70.42420630      73.37810630
Pt      78.92691463      70.42420630      73.37810630
Pt      77.53971255      72.38600630      74.76530838
Pt      77.53971255      68.46240630      71.99090422
Pt      76.15251047      66.50060630      73.37810630
Pt      78.92691463      66.50060630      73.37810630
Pt      77.53971255      68.46240630      74.76530838
Pt      77.53971255      64.53880630      71.99090422
Pt      76.15251047      62.57700630      73.37810630
Pt      78.92691463      62.57700630      73.37810630
Pt      77.53971255      64.53880630      74.76530838
Pt      77.53971255      60.61520630      71.99090422
Pt      76.15251047      58.65340630      73.37810630
Pt      78.92691463      58.65340630      73.37810630
Pt      77.53971255      60.61520630      74.76530838
Pt      77.53971255      56.69160630      71.99090422
Pt      76.15251047      54.72980630      73.37810630
Pt      78.92691463      54.72980630      73.37810630
Pt      77.53971255      56.69160630      74.76530838
Pt      77.53971255      52.76800630      71.99090422
Pt      76.15251047      50.80620630      73.37810630
Pt      78.92691463      50.80620630      73.37810630
Pt      77.53971255      52.76800630      74.76530838
Pt      73.37810630     101.81300630      76.15251047
Pt      76.15251047     101.81300630      76.15251047
Pt      74.76530838      99.85120630      74.76530838
Pt      73.37810630      97.88940630      76.15251047
Pt      76.15251047      97.88940630      76.15251047
Pt      74.76530838      99.85120630      77.53971255
Pt      74.76530838      95.92760630      74.76530838
Pt      73.37810630      93.96580630      76.15251047
Pt      76.15251047      93.96580630      76.15251047
Pt      74.76530838      95.92760630      77.53971255
Pt      74.76530838      92.00400630      74.76530838
Pt      73.37810630      90.04220630      76.15251047
Pt      76.15251047      90.04220630      76.15251047
Pt      74.76530838      92.00400630      77.53971255
Pt      74.76530838      88.08040630      74.76530838
Pt      73.37810630      86.11860630      76.15251047
Pt      76.15251047      86.11860630      76.15251047
Pt      74.76530838      88.08040630      77.53971255
Pt      74.76530838      84.15680630      74.76530838
Pt      73.37810630      82.19500630      76.15251047
Pt      76.15251047      82.19500630      76.15251047
Pt      74.76530838      84.15680630      77.53971255
Pt      74.76530838      80.23320630      74.76530838
Pt      73.37810630      78.27140630      76.15251047
Pt      76.15251047      78.27140630      76.15251047
Pt      74.76530838      80.23320630      77.53971255
Pt      74.76530838      76.30960630      74.76530838
Pt      73.37810630      74.34780630      76.15251047
Pt      76.15251047      74.34780630      76.15251047
Pt      74.76530838      76.30960630      77.53971255
Pt      74.76530838      72.38600630      74.76530838
Pt      73.37810630      70.42420630      76.15251047
Pt      76.15251047      70.42420630      76.15251047
Pt      74.76530838      72.38600630      77.53971255
Pt      74.76530838      68.46240630      74.76530838
Pt      73.37810630      66.50060630      76.15251047
Pt      76.15251047      66.50060630      76.15251047
Pt      74.76530838      68.46240630      77.53971255
Pt      74.76530838      64.53880630      74.76530838
Pt      73.37810630      62.57700630      76.15251047
Pt      76.15251047      62.57700630      76.15251047
Pt      74.76530838      64.53880630      77.53971255
Pt      74.76530838      60.61520630      74.76530838
Pt      73.37810630      58.65340630      76.15251047
Pt      76.15251047      58.65340630      76.15251047
Pt      74.76530838      60.61520630      77.53971255
Pt      74.76530838      56.69160630      74.76530838
Pt      73.37810630      54.72980630      76.15251047
Pt      76.15251047      54.72980630      76.15251047
Pt      74.76530838      56.69160630      77.53971255
Pt      74.76530838      52.76800630      74.76530838
Pt      73.37810630      50.80620630      76.15251047
Pt      76.15251047      50.80620630      76.15251047
Pt      74.76530838      52.76800630      77.53971255
Pt      70.60370213     101.81300630      78.92691463
Pt      73.37810630     101.81300630      78.92691463
Pt      71.99090422      99.85120630      77.53971255
Pt      70.60370213      97.88940630      78.92691463
Pt      73.37810630      97.88940630      78.92691463
Pt      71.99090422      99.85120630      80.31411672
Pt      71.99090422      95.92760630      77.53971255
Pt      70.60370213      93.96580630      78.92691463
Pt      73.37810630      93.96580630      78.92691463
Pt      71.99090422      95.92760630      80.31411672
Pt      71.99090422      92.00400630      77.53971255
Pt      70.60370213      90.04220630      78.92691463
Pt      73.37810630      90.04220630      78.92691463
Pt      71.99090422      92.00400630      80.31411672
Pt      71.99090422      88.08040630      77.53971255
Pt      70.60370213      86.11860630      78.92691463
Pt      73.37810630      86.11860630      78.92691463
Pt      71.99090422      88.08040630      80.31411672
Pt      71.99090422      84.15680630      77.53971255
Pt      70.60370213      82.19500630      78.92691463
Pt      73.37810630      82.19500630      78.92691463
Pt      71.99090422      84.15680630      80.31411672
Pt      71.99090422      80.23320630      77.53971255
Pt      70.60370213      78.27140630      78.92691463
Pt      73.37810630      78.27140630      78.92691463
Pt      71.99090422      80.23320630      80.31411672
Pt      71.99090422      76.30960630      77.53971255
Pt      70.60370213      74.34780630      78.92691463
Pt      73.37810630      74.34780630      78.92691463
Pt      71.99090422      76.30960630      80.31411672
Pt      71.99090422      72.38600630      77.53971255
Pt      70.60370213      70.42420630      78.92691463
Pt      73.37810630      70.42420630      78.92691463
Pt      71.99090422      72.38600630      80.31411672
Pt      71.99090422      68.46240630      77.53971255
Pt      70.60370213      66.50060630      78.92691463
Pt      73.37810630      66.50060630      78.92691463
Pt      71.99090422      68.46240630      80.31411672
Pt      71.99090422      64.53880630      77.53971255
Pt      70.60370213      62.57700630      78.92691463
Pt      73.37810630      62.57700630      78.92691463
Pt      71.99090422      64.53880630      80.31411672
Pt      71.99090422      60.61520630      77.53971255
Pt      70.60370213      58.65340630      78.92691463
Pt      73.37810630      58.65340630      78.92691463
Pt      71.99090422      60.61520630      80.31411672
Pt      71.99090422      56.69160630      77.53971255
Pt      70.60370213      54.72980630      78.92691463
Pt      73.37810630      54.72980630      78.92691463
Pt      71.99090422      56.69160630      80.31411672
Pt      71.99090422      52.76800630      77.53971255
Pt      70.60370213      50.80620630      78.92691463
Pt      73.37810630      50.80620630      78.92691463
Pt      71.99090422      52.76800630      80.31411672
Pt      69.21650005      99.85120630      80.31411672
Pt      67.82929797      97.88940630      81.70131880
Pt      70.60370213      97.88940630      81.70131880
Pt      69.21650005      99.85120630      83.08852088
Pt      69.21650005      95.92760630      80.31411672
Pt      67.82929797      93.96580630      81.70131880
Pt      70.60370213      93.96580630      81.70131880
Pt      69.21650005      95.92760630      83.08852088
Pt      69.21650005      92.00400630      80.31411672
Pt      67.82929797      90.04220630      81.70131880
Pt      70.60370213      90.04220630      81.70131880
Pt      69.21650005      92.00400630      83.08852088
Pt      69.21650005      88.08040630      80.31411672
Pt      67.82929797      86.11860630      81.70131880
Pt      70.60370213      86.11860630      81.70131880
Pt      69.21650005      88.08040630      83.08852088
Pt      69.21650005      84.15680630      80.31411672
Pt      67.82929797      82.19500630      81.70131880
Pt      70.60370213      82.19500630      81.70131880
Pt      69.21650005      84.15680630      83.08852088
Pt      69.21650005      80.23320630      80.31411672
Pt      67.82929797      78.27140630      81.70131880
Pt      70.60370213      78.27140630      81.70131880
Pt      69.21650005      80.23320630      83.08852088
Pt      69.21650005      76.30960630      80.31411672
Pt      67.82929797      74.34780630      81.70131880
Pt      70.60370213      74.34780630      81.70131880
Pt      69.21650005      76.30960630      83.08852088
Pt      69.21650005      72.38600630      80.31411672
Pt      67.82929797      70.42420630      81.70131880
Pt      70.60370213      70.42420630      81.70131880
Pt      69.21650005      72.38600630      83.08852088
Pt      69.21650005      68.46240630      80.31411672
Pt      67.82929797      66.50060630      81.70131880
Pt      70.60370213      66.50060630      81.70131880
Pt      69.21650005      68.46240630      83.08852088
Pt      69.21650005      64.53880630      80.31411672
Pt      67.82929797      62.57700630      81.70131880
Pt      70.60370213      62.57700630      81.70131880
Pt      69.21650005      64.53880630      83.08852088
Pt      69.21650005      60.61520630      80.31411672
Pt      67.82929797      58.65340630      81.70131880
Pt      70.60370213      58.65340630      81.70131880
Pt      69.21650005      60.61520630      83.08852088
Pt      69.21650005      56.69160630      80.31411672
Pt      67.82929797      54.72980630      81.70131880
Pt      70.60370213      54.72980630      81.70131880
Pt      69.21650005      56.69160630      83.08852088
Pt      69.21650005      52.76800630      80.31411672
Pt      69.21650005      52.76800630      83.08852088
Pt      67.82929797      97.88940630      84.47572297
Pt      66.44209588      95.92760630      83.08852088
Pt      65.05489380      93.96580630      84.47572297
Pt      67.82929797      93.96580630      84.47572297
Pt      66.44209588      95.92760630      85.86292505
Pt      66.44209588      92.00400630      83.08852088
Pt      65.05489380      90.04220630      84.47572297
Pt      67.82929797      90.04220630      84.47572297
Pt      66.44209588      92.00400630      85.86292505
Pt      66.44209588      88.08040630      83.08852088
Pt      65.05489380      86.11860630      84.47572297
Pt      67.82929797      86.11860630      84.47572297
Pt      66.44209588      88.08040630      85.86292505
Pt      66.44209588      84.15680630      83.08852088
Pt      65.05489380      82.19500630      84.47572297
Pt      67.82929797      82.19500630      84.47572297
Pt      66.44209588      84.15680630      85.86292505
Pt      66.44209588      80.23320630      83.08852088
Pt      65.05489380      78.27140630      84.47572297
Pt      67.82929797      78.27140630      84.47572297
Pt      66.44209588      80.23320630      85.86292505
Pt      66.44209588      76.30960630      83.08852088
Pt      65.05489380      74.34780630      84.47572297
Pt      67.82929797      74.34780630      84.47572297
Pt      66.44209588      76.30960630      85.86292505
Pt      66.44209588      72.38600630      83.08852088
Pt      65.05489380      70.42420630      84.47572297
Pt      67.82929797      70.42420630      84.47572297
Pt      66.44209588      72.38600630      85.86292505
Pt      66.44209588      68.46240630      83.08852088
Pt      65.05489380      66.50060630      84.47572297
Pt      67.82929797      66.50060630      84.47572297
Pt      66.44209588      68.46240630      85.86292505
Pt      66.44209588      64.53880630      83.08852088
Pt      65.05489380      62.57700630      84.47572297
Pt      67.82929797      62.57700630      84.47572297
Pt      66.44209588      64.53880630      85.86292505
Pt      66.44209588      60.61520630      83.08852088
Pt      65.05489380      58.65340630      84.47572297
Pt      67.82929797      58.65340630      84.47572297
Pt      66.44209588      60.61520630      85.86292505
Pt      66.44209588      56.69160630      83.08852088
Pt      67.82929797      54.72980630      84.47572297
Pt      66.44209588      56.69160630      85.86292505
Pt      65.05489380      93.96580630      87.25012713
Pt      63.66769172      92.00400630      85.86292505
Pt      62.28048963      90.04220630      87.25012713
Pt      65.05489380      90.04220630      87.25012713
Pt      63.66769172      92.00400630      88.63732922
Pt      63.66769172      88.08040630      85.86292505
Pt      62.28048963      86.11860630      87.25012713
Pt      65.05489380      86.11860630      87.25012713
Pt      63.66769172      88.08040630      88.63732922
Pt      63.66769172      84.15680630      85.86292505
Pt      62.28048963      82.19500630      87.25012713
Pt      65.05489380      82.19500630      87.25012713
Pt      63.66769172      84.15680630      88.63732922
Pt      63.66769172      80.23320630      85.86292505
Pt      62.28048963      78.27140630      87.25012713
Pt      65.05489380      78.27140630      87.25012713
Pt      63.66769172      80.23320630      88.63732922
Pt      63.66769172      76.30960630      85.86292505
Pt      62.28048963      74.34780630      87.25012713
Pt      65.05489380      74.34780630      87.25012713
Pt      63.66769172      76.30960630      88.63732922
Pt      63.66769172      72.38600630      85.86292505
Pt      62.28048963      70.42420630      87.25012713
Pt      65.05489380      70.42420630      87.25012713
Pt      63.66769172      72.38600630      88.63732922
Pt      63.66769172      68.46240630      85.86292505
Pt      62.28048963      66.50060630      87.25012713
Pt      65.05489380      66.50060630      87.25012713
Pt      63.66769172      68.46240630      88.63732922
Pt      63.66769172      64.53880630      85.86292505
Pt      62.28048963      62.57700630      87.25012713
Pt      65.05489380      62.57700630      87.25012713
Pt      63.66769172      64.53880630      88.63732922
Pt      63.66769172      60.61520630      85.86292505
Pt      65.05489380      58.65340630      87.25012713
Pt      63.66769172      60.61520630      88.63732922
Pt      62.28048963      90.04220630      90.02453130
Pt      60.89328755      88.08040630      88.63732922
Pt      59.50608547      86.11860630      90.02453130
Pt      62.28048963      86.11860630      90.02453130
Pt      60.89328755      88.08040630      91.41173338
Pt      60.89328755      84.15680630      88.63732922
Pt      59.50608547      82.19500630      90.02453130
Pt      62.28048963      82.19500630      90.02453130
Pt      60.89328755      84.15680630      91.41173338
Pt      60.89328755      80.23320630      88.63732922
Pt      59.50608547      78.27140630      90.02453130
Pt      62.28048963      78.27140630      90.02453130
Pt      60.89328755      80.23320630      91.41173338
Pt      60.89328755      76.30960630      88.63732922
Pt      59.50608547      74.34780630      90.02453130
Pt      62.28048963      74.34780630      90.02453130
Pt      60.89328755      76.30960630      91.41173338
Pt      60.89328755      72.38600630      88.63732922
Pt      59.50608547      70.42420630      90.02453130
Pt      62.28048963      70.42420630      90.02453130
Pt      60.89328755      72.38600630      91.41173338
Pt      60.89328755      68.46240630      88.63732922
Pt      59.50608547      66.50060630      90.02453130
Pt      62.28048963      66.50060630      90.02453130
Pt      60.89328755      68.46240630      91.41173338
Pt      60.89328755      64.53880630      88.63732922
Pt      62.28048963      62.57700630      90.02453130
Pt      60.89328755      64.53880630      91.41173338
Pt      59.50608547      86.11860630      92.79893547
Pt      58.11888338      84.15680630      91.41173338
Pt      56.73168130      82.19500630      92.79893547
Pt      59.50608547      82.19500630      92.79893547
Pt      58.11888338      80.23320630      91.41173338
Pt      56.73168130      78.27140630      92.79893547
Pt      59.50608547      78.27140630      92.79893547
Pt      58.11888338      80.23320630      94.18613755
Pt      58.11888338      76.30960630      91.41173338
Pt      56.73168130      74.34780630      92.79893547
Pt      59.50608547      74.34780630      92.79893547
Pt      58.11888338      76.30960630      94.18613755
Pt      58.11888338      72.38600630      91.41173338
Pt      56.73168130      70.42420630      92.79893547
Pt      59.50608547      70.42420630      92.79893547
Pt      58.11888338      72.38600630      94.18613755
Pt      58.11888338      68.46240630      91.41173338
Pt      59.50608547      66.50060630      92.79893547
Pt      95.57333963      78.27140630      59.50608547
Pt      95.57333963      74.34780630      59.50608547
Pt      96.96054172      76.30960630      60.89328755
Pt      92.79893547      86.11860630      62.28048963
Pt      94.18613755      84.15680630      60.89328755
Pt      92.79893547      82.19500630      62.28048963
Pt      95.57333963      82.19500630      62.28048963
Pt      94.18613755      84.15680630      63.66769172
Pt      94.18613755      80.23320630      60.89328755
Pt      92.79893547      78.27140630      62.28048963
Pt      95.57333963      78.27140630      62.28048963
Pt      94.18613755      80.23320630      63.66769172
Pt      94.18613755      76.30960630      60.89328755
Pt      92.79893547      74.34780630      62.28048963
Pt      95.57333963      74.34780630      62.28048963
Pt      94.18613755      76.30960630      63.66769172
Pt      94.18613755      72.38600630      60.89328755
Pt      92.79893547      70.42420630      62.28048963
Pt      95.57333963      70.42420630      62.28048963
Pt      94.18613755      72.38600630      63.66769172
Pt      94.18613755      68.46240630      60.89328755
Pt      92.79893547      66.50060630      62.28048963
Pt      94.18613755      68.46240630      63.66769172
Pt      90.02453130      90.04220630      65.05489380
Pt      91.41173338      88.08040630      63.66769172
Pt      90.02453130      86.11860630      65.05489380
Pt      92.79893547      86.11860630      65.05489380
Pt      91.41173338      88.08040630      66.44209588
Pt      91.41173338      84.15680630      63.66769172
Pt      90.02453130      82.19500630      65.05489380
Pt      92.79893547      82.19500630      65.05489380
Pt      91.41173338      84.15680630      66.44209588
Pt      91.41173338      80.23320630      63.66769172
Pt      90.02453130      78.27140630      65.05489380
Pt      92.79893547      78.27140630      65.05489380
Pt      91.41173338      80.23320630      66.44209588
Pt      91.41173338      76.30960630      63.66769172
Pt      90.02453130      74.34780630      65.05489380
Pt      92.79893547      74.34780630      65.05489380
Pt      91.41173338      76.30960630      66.44209588
Pt      91.41173338      72.38600630      63.66769172
Pt      90.02453130      70.42420630      65.05489380
Pt      92.79893547      70.42420630      65.05489380
Pt      91.41173338      72.38600630      66.44209588
Pt      91.41173338      68.46240630      63.66769172
Pt      90.02453130      66.50060630      65.05489380
Pt      92.79893547      66.50060630      65.05489380
Pt      91.41173338      68.46240630      66.44209588
Pt      91.41173338      64.53880630      63.66769172
Pt      90.02453130      62.57700630      65.05489380
Pt      91.41173338      64.53880630      66.44209588
Pt      87.25012713      93.96580630      67.82929797
Pt      88.63732922      92.00400630      66.44209588
Pt      87.25012713      90.04220630      67.82929797
Pt      90.02453130      90.04220630      67.82929797
Pt      88.63732922      92.00400630      69.21650005
Pt      88.63732922      88.08040630      66.44209588
Pt      87.25012713      86.11860630      67.82929797
Pt      90.02453130      86.11860630      67.82929797
Pt      88.63732922      88.08040630      69.21650005
Pt      88.63732922      84.15680630      66.44209588
Pt      87.25012713      82.19500630      67.82929797
Pt      90.02453130      82.19500630      67.82929797
Pt      88.63732922      84.15680630      69.21650005
Pt      88.63732922      80.23320630      66.44209588
Pt      87.25012713      78.27140630      67.82929797
Pt      90.02453130      78.27140630      67.82929797
Pt      88.63732922      80.23320630      69.21650005
Pt      88.63732922      76.30960630      66.44209588
Pt      87.25012713      74.34780630      67.82929797
Pt      90.02453130      74.34780630      67.82929797
Pt      88.63732922      76.30960630      69.21650005
Pt      88.63732922      72.38600630      66.44209588
Pt      87.25012713      70.42420630      67.82929797
Pt      90.02453130      70.42420630      67.82929797
Pt      88.63732922      72.38600630      69.21650005
Pt      88.63732922      68.46240630      66.44209588
Pt      87.25012713      66.50060630      67.82929797
Pt      90.02453130      66.50060630      67.82929797
Pt      88.63732922      68.46240630      69.21650005
Pt      88.63732922      64.53880630      66.44209588
Pt      87.25012713      62.57700630      67.82929797
Pt      90.02453130      62.57700630      67.82929797
Pt      88.63732922      64.53880630      69.21650005
Pt      88.63732922      60.61520630      66.44209588
Pt      87.25012713      58.65340630      67.82929797
Pt      88.63732922      60.61520630      69.21650005
Pt      84.47572297      97.88940630      70.60370213
Pt      85.86292505      95.92760630      69.21650005
Pt      84.47572297      93.96580630      70.60370213
Pt      87.25012713      93.96580630      70.60370213
Pt      85.86292505      95.92760630      71.99090422
Pt      85.86292505      92.00400630      69.21650005
Pt      84.47572297      90.04220630      70.60370213
Pt      87.25012713      90.04220630      70.60370213
Pt      85.86292505      92.00400630      71.99090422
Pt      85.86292505      88.08040630      69.21650005
Pt      84.47572297      86.11860630      70.60370213
Pt      87.25012713      86.11860630      70.60370213
Pt      85.86292505      88.08040630      71.99090422
Pt      85.86292505      84.15680630      69.21650005
Pt      84.47572297      82.19500630      70.60370213
Pt      87.25012713      82.19500630      70.60370213
Pt      85.86292505      84.15680630      71.99090422
Pt      85.86292505      80.23320630      69.21650005
Pt      84.47572297      78.27140630      70.60370213
Pt      87.25012713      78.27140630      70.60370213
Pt      85.86292505      80.23320630      71.99090422
Pt      85.86292505      76.30960630      69.21650005
Pt      84.47572297      74.34780630      70.60370213
Pt      87.25012713      74.34780630      70.60370213
Pt      85.86292505      76.30960630      71.99090422
Pt      85.86292505      72.38600630      69.21650005
Pt      84.47572297      70.42420630      70.60370213
Pt      87.25012713      70.42420630      70.60370213
Pt      85.86292505      72.38600630      71.99090422
Pt      85.86292505      68.46240630      69.21650005
Pt      84.47572297      66.50060630      70.60370213
Pt      87.25012713      66.50060630      70.60370213
Pt      85.86292505      68.46240630      71.99090422
Pt      85.86292505      64.53880630      69.21650005
Pt      84.47572297      62.57700630      70.60370213
Pt      87.25012713      62.57700630      70.60370213
Pt      85.86292505      64.53880630      71.99090422
Pt      85.86292505      60.61520630      69.21650005
Pt      84.47572297      58.65340630      70.60370213
Pt      87.25012713      58.65340630      70.60370213
Pt      85.86292505      60.61520630      71.99090422
Pt      85.86292505      56.69160630      69.21650005
Pt      84.47572297      54.72980630      70.60370213
Pt      85.86292505      56.69160630      71.99090422
Pt      83.08852088      99.85120630      71.99090422
Pt      81.70131880      97.88940630      73.37810630
Pt      84.47572297      97.88940630      73.37810630
Pt      83.08852088      99.85120630      74.76530838
Pt      83.08852088      95.92760630      71.99090422
Pt      81.70131880      93.96580630      73.37810630
Pt      84.47572297      93.96580630      73.37810630
Pt      83.08852088      95.92760630      74.76530838
Pt      83.08852088      92.00400630      71.99090422
Pt      81.70131880      90.04220630      73.37810630
Pt      84.47572297      90.04220630      73.37810630
Pt      83.08852088      92.00400630      74.76530838
Pt      83.08852088      88.08040630      71.99090422
Pt      81.70131880      86.11860630      73.37810630
Pt      84.47572297      86.11860630      73.37810630
Pt      83.08852088      88.08040630      74.76530838
Pt      83.08852088      84.15680630      71.99090422
Pt      81.70131880      82.19500630      73.37810630
Pt      84.47572297      82.19500630      73.37810630
Pt      83.08852088      84.15680630      74.76530838
Pt      83.08852088      80.23320630      71.99090422
Pt      81.70131880      78.27140630      73.37810630
Pt      84.47572297      78.27140630      73.37810630
Pt      83.08852088      80.23320630      74.76530838
Pt      83.08852088      76.30960630      71.99090422
Pt      81.70131880      74.34780630      73.37810630
Pt      84.47572297      74.34780630      73.37810630
Pt      83.08852088      76.30960630      74.76530838
Pt      83.08852088      72.38600630      71.99090422
Pt      81.70131880      70.42420630      73.37810630
Pt      84.47572297      70.42420630      73.37810630
Pt      83.08852088      72.38600630      74.76530838
Pt      83.08852088      68.46240630      71.99090422
Pt      81.70131880      66.50060630      73.37810630
Pt      84.47572297      66.50060630      73.37810630
Pt      83.08852088      68.46240630      74.76530838
Pt      83.08852088      64.53880630      71.99090422
Pt      81.70131880      62.57700630      73.37810630
Pt      84.47572297      62.57700630      73.37810630
Pt      83.08852088      64.53880630      74.76530838
Pt      83.08852088      60.61520630      71.99090422
Pt      81.70131880      58.65340630      73.37810630
Pt      84.47572297      58.65340630      73.37810630
Pt      83.08852088      60.61520630      74.76530838
Pt      83.08852088      56.69160630      71.99090422
Pt      81.70131880      54.72980630      73.37810630
Pt      84.47572297      54.72980630      73.37810630
Pt      83.08852088      56.69160630      74.76530838
Pt      83.08852088      52.76800630      71.99090422
Pt      83.08852088      52.76800630      74.76530838
Pt      78.92691463     101.81300630      76.15251047
Pt      80.31411672      99.85120630      74.76530838
Pt      78.92691463      97.88940630      76.15251047
Pt      81.70131880      97.88940630      76.15251047
Pt      80.31411672      99.85120630      77.53971255
Pt      80.31411672      95.92760630      74.76530838
Pt      78.92691463      93.96580630      76.15251047
Pt      81.70131880      93.96580630      76.15251047
Pt      80.31411672      95.92760630      77.53971255
Pt      80.31411672      92.00400630      74.76530838
Pt      78.92691463      90.04220630      76.15251047
Pt      81.70131880      90.04220630      76.15251047
Pt      80.31411672      92.00400630      77.53971255
Pt      80.31411672      88.08040630      74.76530838
Pt      78.92691463      86.11860630      76.15251047
Pt      81.70131880      86.11860630      76.15251047
Pt      80.31411672      88.08040630      77.53971255
Pt      80.31411672      84.15680630      74.76530838
Pt      78.92691463      82.19500630      76.15251047
Pt      81.70131880      82.19500630      76.15251047
Pt      80.31411672      84.15680630      77.53971255
Pt      80.31411672      80.23320630      74.76530838
Pt      78.92691463      78.27140630      76.15251047
Pt      81.70131880      78.27140630      76.15251047
Pt      80.31411672      80.23320630      77.53971255
Pt      80.31411672      76.30960630      74.76530838
Pt      78.92691463      74.34780630      76.15251047
Pt      81.70131880      74.34780630      76.15251047
Pt      80.31411672      76.30960630      77.53971255
Pt      80.31411672      72.38600630      74.76530838
Pt      78.92691463      70.42420630      76.15251047
Pt      81.70131880      70.42420630      76.15251047
Pt      80.31411672      72.38600630      77.53971255
Pt      80.31411672      68.46240630      74.76530838
Pt      78.92691463      66.50060630      76.15251047
Pt      81.70131880      66.50060630      76.15251047
Pt      80.31411672      68.46240630      77.53971255
Pt      80.31411672      64.53880630      74.76530838
Pt      78.92691463      62.57700630      76.15251047
Pt      81.70131880      62.57700630      76.15251047
Pt      80.31411672      64.53880630      77.53971255
Pt      80.31411672      60.61520630      74.76530838
Pt      78.92691463      58.65340630      76.15251047
Pt      81.70131880      58.65340630      76.15251047
Pt      80.31411672      60.61520630      77.53971255
Pt      80.31411672      56.69160630      74.76530838
Pt      78.92691463      54.72980630      76.15251047
Pt      81.70131880      54.72980630      76.15251047
Pt      80.31411672      56.69160630      77.53971255
Pt      80.31411672      52.76800630      74.76530838
Pt      78.92691463      50.80620630      76.15251047
Pt      80.31411672      52.76800630      77.53971255
Pt      76.15251047     101.81300630      78.92691463
Pt      78.92691463     101.81300630      78.92691463
Pt      77.53971255      99.85120630      77.53971255
Pt      76.15251047      97.88940630      78.92691463
Pt      78.92691463      97.88940630      78.92691463
Pt      77.53971255      99.85120630      80.31411672
Pt      77.53971255      95.92760630      77.53971255
Pt      76.15251047      93.96580630      78.92691463
Pt      78.92691463      93.96580630      78.92691463
Pt      77.53971255      95.92760630      80.31411672
Pt      77.53971255      92.00400630      77.53971255
Pt      76.15251047      90.04220630      78.92691463
Pt      78.92691463      90.04220630      78.92691463
Pt      77.53971255      92.00400630      80.31411672
Pt      77.53971255      88.08040630      77.53971255
Pt      76.15251047      86.11860630      78.92691463
Pt      78.92691463      86.11860630      78.92691463
Pt      77.53971255      88.08040630      80.31411672
Pt      77.53971255      84.15680630      77.53971255
Pt      76.15251047      82.19500630      78.92691463
Pt      78.92691463      82.19500630      78.92691463
Pt      77.53971255      84.15680630      80.31411672
Pt      77.53971255      80.23320630      77.53971255
Pt      76.15251047      78.27140630      78.92691463
Pt      78.92691463      78.27140630      78.92691463
Pt      77.53971255      80.23320630      80.31411672
Pt      77.53971255      76.30960630      77.53971255
Pt      76.15251047      74.34780630      78.92691463
Pt      78.92691463      74.34780630      78.92691463
Pt      77.53971255      76.30960630      80.31411672
Pt      77.53971255      72.38600630      77.53971255
Pt      76.15251047      70.42420630      78.92691463
Pt      78.92691463      70.42420630      78.92691463
Pt      77.53971255      72.38600630      80.31411672
Pt      77.53971255      68.46240630      77.53971255
Pt      76.15251047      66.50060630      78.92691463
Pt      78.92691463      66.50060630      78.92691463
Pt      77.53971255      68.46240630      80.31411672
Pt      77.53971255      64.53880630      77.53971255
Pt      76.15251047      62.57700630      78.92691463
Pt      78.92691463      62.57700630      78.92691463
Pt      77.53971255      64.53880630      80.31411672
Pt      77.53971255      60.61520630      77.53971255
Pt      76.15251047      58.65340630      78.92691463
Pt      78.92691463      58.65340630      78.92691463
Pt      77.53971255      60.61520630      80.31411672
Pt      77.53971255      56.69160630      77.53971255
Pt      76.15251047      54.72980630      78.92691463
Pt      78.92691463      54.72980630      78.92691463
Pt      77.53971255      56.69160630      80.31411672
Pt      77.53971255      52.76800630      77.53971255
Pt      76.15251047      50.80620630      78.92691463
Pt      78.92691463      50.80620630      78.92691463
Pt      77.53971255      52.76800630      80.31411672
Pt      74.76530838      99.85120630      80.31411672
Pt      73.37810630      97.88940630      81.70131880
Pt      76.15251047      97.88940630      81.70131880
Pt      74.76530838      99.85120630      83.08852088
Pt      74.76530838      95.92760630      80.31411672
Pt      73.37810630      93.96580630      81.70131880
Pt      76.15251047      93.96580630      81.70131880
Pt      74.76530838      95.92760630      83.08852088
Pt      74.76530838      92.00400630      80.31411672
Pt      73.37810630      90.04220630      81.70131880
Pt      76.15251047      90.04220630      81.70131880
Pt      74.76530838      92.00400630      83.08852088
Pt      74.76530838      88.08040630      80.31411672
Pt      73.37810630      86.11860630      81.70131880
Pt      76.15251047      86.11860630      81.70131880
Pt      74.76530838      88.08040630      83.08852088
Pt      74.76530838      84.15680630      80.31411672
Pt      73.37810630      82.19500630      81.70131880
Pt      76.15251047      82.19500630      81.70131880
Pt      74.76530838      84.15680630      83.08852088
Pt      74.76530838      80.23320630      80.31411672
Pt      73.37810630      78.27140630      81.70131880
Pt      76.15251047      78.27140630      81.70131880
Pt      74.76530838      80.23320630      83.08852088
Pt      74.76530838      76.30960630      80.31411672
Pt      73.37810630      74.34780630      81.70131880
Pt      76.15251047      74.34780630      81.70131880
Pt      74.76530838      76.30960630      83.08852088
Pt      74.76530838      72.38600630      80.31411672
Pt      73.37810630      70.42420630      81.70131880
Pt      76.15251047      70.42420630      81.70131880
Pt      74.76530838      72.38600630      83.08852088
Pt      74.76530838      68.46240630      80.31411672
Pt      73.37810630      66.50060630      81.70131880
Pt      76.15251047      66.50060630      81.70131880
Pt      74.76530838      68.46240630      83.08852088
Pt      74.76530838      64.53880630      80.31411672
Pt      73.37810630      62.57700630      81.70131880
Pt      76.15251047      62.57700630      81.70131880
Pt      74.76530838      64.53880630      83.08852088
Pt      74.76530838      60.61520630      80.31411672
Pt      73.37810630      58.65340630      81.70131880
Pt      76.15251047      58.65340630      81.70131880
Pt      74.76530838      60.61520630      83.08852088
Pt      74.76530838      56.69160630      80.31411672
Pt      73.37810630      54.72980630      81.70131880
Pt      76.15251047      54.72980630      81.70131880
Pt      74.76530838      56.69160630      83.08852088
Pt      74.76530838      52.76800630      80.31411672
Pt      74.76530838      52.76800630      83.08852088
Pt      71.99090422      99.85120630      83.08852088
Pt      70.60370213      97.88940630      84.47572297
Pt      73.37810630      97.88940630      84.47572297
Pt      71.99090422      95.92760630      83.08852088
Pt      70.60370213      93.96580630      84.47572297
Pt      73.37810630      93.96580630      84.47572297
Pt      71.99090422      95.92760630      85.86292505
Pt      71.99090422      92.00400630      83.08852088
Pt      70.60370213      90.04220630      84.47572297
Pt      73.37810630      90.04220630      84.47572297
Pt      71.99090422      92.00400630      85.86292505
Pt      71.99090422      88.08040630      83.08852088
Pt      70.60370213      86.11860630      84.47572297
Pt      73.37810630      86.11860630      84.47572297
Pt      71.99090422      88.08040630      85.86292505
Pt      71.99090422      84.15680630      83.08852088
Pt      70.60370213      82.19500630      84.47572297
Pt      73.37810630      82.19500630      84.47572297
Pt      71.99090422      84.15680630      85.86292505
Pt      71.99090422      80.23320630      83.08852088
Pt      70.60370213      78.27140630      84.47572297
Pt      73.37810630      78.27140630      84.47572297
Pt      71.99090422      80.23320630      85.86292505
Pt      71.99090422      76.30960630      83.08852088
Pt      70.60370213      74.34780630      84.47572297
Pt      73.37810630      74.34780630      84.47572297
Pt      71.99090422      76.30960630      85.86292505
Pt      71.99090422      72.38600630      83.08852088
Pt      70.60370213      70.42420630      84.47572297
Pt      73.37810630      70.42420630      84.47572297
Pt      71.99090422      72.38600630      85.86292505
Pt      71.99090422      68.46240630      83.08852088
Pt      70.60370213      66.50060630      84.47572297
Pt      73.37810630      66.50060630      84.47572297
Pt      71.99090422      68.46240630      85.86292505
Pt      71.99090422      64.53880630      83.08852088
Pt      70.60370213      62.57700630      84.47572297
Pt      73.37810630      62.57700630      84.47572297
Pt      71.99090422      64.53880630      85.86292505
Pt      71.99090422      60.61520630      83.08852088
Pt      70.60370213      58.65340630      84.47572297
Pt      73.37810630      58.65340630      84.47572297
Pt      71.99090422      60.61520630      85.86292505
Pt      71.99090422      56.69160630      83.08852088
Pt      70.60370213      54.72980630      84.47572297
Pt      73.37810630      54.72980630      84.47572297
Pt      71.99090422      56.69160630      85.86292505
Pt      71.99090422      52.76800630      83.08852088
Pt      69.21650005      95.92760630      85.86292505
Pt      67.82929797      93.96580630      87.25012713
Pt      70.60370213      93.96580630      87.25012713
Pt      69.21650005      92.00400630      85.86292505
Pt      67.82929797      90.04220630      87.25012713
Pt      70.60370213      90.04220630      87.25012713
Pt      69.21650005      92.00400630      88.63732922
Pt      69.21650005      88.08040630      85.86292505
Pt      67.82929797      86.11860630      87.25012713
Pt      70.60370213      86.11860630      87.25012713
Pt      69.21650005      88.08040630      88.63732922
Pt      69.21650005      84.15680630      85.86292505
Pt      67.82929797      82.19500630      87.25012713
Pt      70.60370213      82.19500630      87.25012713
Pt      69.21650005      84.15680630      88.63732922
Pt      69.21650005      80.23320630      85.86292505
Pt      67.82929797      78.27140630      87.25012713
Pt      70.60370213      78.27140630      87.25012713
Pt      69.21650005      80.23320630      88.63732922
Pt      69.21650005      76.30960630      85.86292505
Pt      67.82929797      74.34780630      87.25012713
Pt      70.60370213      74.34780630      87.25012713
Pt      69.21650005      76.30960630      88.63732922
Pt      69.21650005      72.38600630      85.86292505
Pt      67.82929797      70.42420630      87.25012713
Pt      70.60370213      70.42420630      87.25012713
Pt      69.21650005      72.38600630      88.63732922
Pt      69.21650005      68.46240630      85.86292505
Pt      67.82929797      66.50060630      87.25012713
Pt      70.60370213      66.50060630      87.25012713
Pt      69.21650005      68.46240630      88.63732922
Pt      69.21650005      64.53880630      85.86292505
Pt      67.82929797      62.57700630      87.25012713
Pt      70.60370213      62.57700630      87.25012713
Pt      69.21650005      64.53880630      88.63732922
Pt      69.21650005      60.61520630      85.86292505
Pt      67.82929797      58.65340630      87.25012713
Pt      70.60370213      58.65340630      87.25012713
Pt      69.21650005      60.61520630      88.63732922
Pt      69.21650005      56.69160630      85.86292505
Pt      66.44209588      92.00400630      88.63732922
Pt      65.05489380      90.04220630      90.02453130
Pt      67.82929797      90.04220630      90.02453130
Pt      66.44209588      88.08040630      88.63732922
Pt      65.05489380      86.11860630      90.02453130
Pt      67.82929797      86.11860630      90.02453130
Pt      66.44209588      88.08040630      91.41173338
Pt      66.44209588      84.15680630      88.63732922
Pt      65.05489380      82.19500630      90.02453130
Pt      67.82929797      82.19500630      90.02453130
Pt      66.44209588      84.15680630      91.41173338
Pt      66.44209588      80.23320630      88.63732922
Pt      65.05489380      78.27140630      90.02453130
Pt      67.82929797      78.27140630      90.02453130
Pt      66.44209588      80.23320630      91.41173338
Pt      66.44209588      76.30960630      88.63732922
Pt      65.05489380      74.34780630      90.02453130
Pt      67.82929797      74.34780630      90.02453130
Pt      66.44209588      76.30960630      91.41173338
Pt      66.44209588      72.38600630      88.63732922
Pt      65.05489380      70.42420630      90.02453130
Pt      67.82929797      70.42420630      90.02453130
Pt      66.44209588      72.38600630      91.41173338
Pt      66.44209588      68.46240630      88.63732922
Pt      65.05489380      66.50060630      90.02453130
Pt      67.82929797      66.50060630      90.02453130
Pt      66.44209588      68.46240630      91.41173338
Pt      66.44209588      64.53880630      88.63732922
Pt      65.05489380      62.57700630      90.02453130
Pt      67.82929797      62.57700630      90.02453130
Pt      66.44209588      64.53880630      91.41173338
Pt      66.44209588      60.61520630      88.63732922
Pt      63.66769172      88.08040630      91.41173338
Pt      62.28048963      86.11860630      92.79893547
Pt      65.05489380      86.11860630      92.79893547
Pt      63.66769172      84.15680630      91.41173338
Pt      62.28048963      82.19500630      92.79893547
Pt      65.05489380      82.19500630      92.79893547
Pt      63.66769172      84.15680630      94.18613755
Pt      63.66769172      80.23320630      91.41173338
Pt      62.28048963      78.27140630      92.79893547
Pt      65.05489380      78.27140630      92.79893547
Pt      63.66769172      80.23320630      94.18613755
Pt      63.66769172      76.30960630      91.41173338
Pt      62.28048963      74.34780630      92.79893547
Pt      65.05489380      74.34780630      92.79893547
Pt      63.66769172      76.30960630      94.18613755
Pt      63.66769172      72.38600630      91.41173338
Pt      62.28048963      70.42420630      92.79893547
Pt      65.05489380      70.42420630      92.79893547
Pt      63.66769172      72.38600630      94.18613755
Pt      63.66769172      68.46240630      91.41173338
Pt      62.28048963      66.50060630      92.79893547
Pt      65.05489380      66.50060630      92.79893547
Pt      63.66769172      68.46240630      94.18613755
Pt      63.66769172      64.53880630      91.41173338
Pt      60.89328755      84.15680630      94.18613755
Pt      62.28048963      82.19500630      95.57333963
Pt      60.89328755      80.23320630      94.18613755
Pt      59.50608547      78.27140630      95.57333963
Pt      62.28048963      78.27140630      95.57333963
Pt      60.89328755      76.30960630      94.18613755
Pt      59.50608547      74.34780630      95.57333963
Pt      62.28048963      74.34780630      95.57333963
Pt      60.89328755      76.30960630      96.96054172
Pt      60.89328755      72.38600630      94.18613755
Pt      62.28048963      70.42420630      95.57333963
Pt      60.89328755      68.46240630      94.18613755
Pt      95.57333963      82.19500630      65.05489380
Pt      96.96054172      80.23320630      63.66769172
Pt      95.57333963      78.27140630      65.05489380
Pt      98.34774380      78.27140630      65.05489380
Pt      96.96054172      80.23320630      66.44209588
Pt      96.96054172      76.30960630      63.66769172
Pt      95.57333963      74.34780630      65.05489380
Pt      98.34774380      74.34780630      65.05489380
Pt      96.96054172      76.30960630      66.44209588
Pt      96.96054172      72.38600630      63.66769172
Pt      95.57333963      70.42420630      65.05489380
Pt      96.96054172      72.38600630      66.44209588
Pt      92.79893547      86.11860630      67.82929797
Pt      94.18613755      84.15680630      66.44209588
Pt      92.79893547      82.19500630      67.82929797
Pt      95.57333963      82.19500630      67.82929797
Pt      94.18613755      84.15680630      69.21650005
Pt      94.18613755      80.23320630      66.44209588
Pt      92.79893547      78.27140630      67.82929797
Pt      95.57333963      78.27140630      67.82929797
Pt      94.18613755      80.23320630      69.21650005
Pt      94.18613755      76.30960630      66.44209588
Pt      92.79893547      74.34780630      67.82929797
Pt      95.57333963      74.34780630      67.82929797
Pt      94.18613755      76.30960630      69.21650005
Pt      94.18613755      72.38600630      66.44209588
Pt      92.79893547      70.42420630      67.82929797
Pt      95.57333963      70.42420630      67.82929797
Pt      94.18613755      72.38600630      69.21650005
Pt      94.18613755      68.46240630      66.44209588
Pt      92.79893547      66.50060630      67.82929797
Pt      94.18613755      68.46240630      69.21650005
Pt      90.02453130      90.04220630      70.60370213
Pt      91.41173338      88.08040630      69.21650005
Pt      90.02453130      86.11860630      70.60370213
Pt      92.79893547      86.11860630      70.60370213
Pt      91.41173338      88.08040630      71.99090422
Pt      91.41173338      84.15680630      69.21650005
Pt      90.02453130      82.19500630      70.60370213
Pt      92.79893547      82.19500630      70.60370213
Pt      91.41173338      84.15680630      71.99090422
Pt      91.41173338      80.23320630      69.21650005
Pt      90.02453130      78.27140630      70.60370213
Pt      92.79893547      78.27140630      70.60370213
Pt      91.41173338      80.23320630      71.99090422
Pt      91.41173338      76.30960630      69.21650005
Pt      90.02453130      74.34780630      70.60370213
Pt      92.79893547      74.34780630      70.60370213
Pt      91.41173338      76.30960630      71.99090422
Pt      91.41173338      72.38600630      69.21650005
Pt      90.02453130      70.42420630      70.60370213
Pt      92.79893547      70.42420630      70.60370213
Pt      91.41173338      72.38600630      71.99090422
Pt      91.41173338      68.46240630      69.21650005
Pt      90.02453130      66.50060630      70.60370213
Pt      92.79893547      66.50060630      70.60370213
Pt      91.41173338      68.46240630      71.99090422
Pt      91.41173338      64.53880630      69.21650005
Pt      90.02453130      62.57700630      70.60370213
Pt      91.41173338      64.53880630      71.99090422
Pt      87.25012713      93.96580630      73.37810630
Pt      88.63732922      92.00400630      71.99090422
Pt      87.25012713      90.04220630      73.37810630
Pt      90.02453130      90.04220630      73.37810630
Pt      88.63732922      92.00400630      74.76530838
Pt      88.63732922      88.08040630      71.99090422
Pt      87.25012713      86.11860630      73.37810630
Pt      90.02453130      86.11860630      73.37810630
Pt      88.63732922      88.08040630      74.76530838
Pt      88.63732922      84.15680630      71.99090422
Pt      87.25012713      82.19500630      73.37810630
Pt      90.02453130      82.19500630      73.37810630
Pt      88.63732922      84.15680630      74.76530838
Pt      88.63732922      80.23320630      71.99090422
Pt      87.25012713      78.27140630      73.37810630
Pt      90.02453130      78.27140630      73.37810630
Pt      88.63732922      80.23320630      74.76530838
Pt      88.63732922      76.30960630      71.99090422
Pt      87.25012713      74.34780630      73.37810630
Pt      90.02453130      74.34780630      73.37810630
Pt      88.63732922      76.30960630      74.76530838
Pt      88.63732922      72.38600630      71.99090422
Pt      87.25012713      70.42420630      73.37810630
Pt      90.02453130      70.42420630      73.37810630
Pt      88.63732922      72.38600630      74.76530838
Pt      88.63732922      68.46240630      71.99090422
Pt      87.25012713      66.50060630      73.37810630
Pt      90.02453130      66.50060630      73.37810630
Pt      88.63732922      68.46240630      74.76530838
Pt      88.63732922      64.53880630      71.99090422
Pt      87.25012713      62.57700630      73.37810630
Pt      90.02453130      62.57700630      73.37810630
Pt      88.63732922      64.53880630      74.76530838
Pt      88.63732922      60.61520630      71.99090422
Pt      87.25012713      58.65340630      73.37810630
Pt      88.63732922      60.61520630      74.76530838
Pt      84.47572297      97.88940630      76.15251047
Pt      85.86292505      95.92760630      74.76530838
Pt      84.47572297      93.96580630      76.15251047
Pt      87.25012713      93.96580630      76.15251047
Pt      85.86292505      95.92760630      77.53971255
Pt      85.86292505      92.00400630      74.76530838
Pt      84.47572297      90.04220630      76.15251047
Pt      87.25012713      90.04220630      76.15251047
Pt      85.86292505      92.00400630      77.53971255
Pt      85.86292505      88.08040630      74.76530838
Pt      84.47572297      86.11860630      76.15251047
Pt      87.25012713      86.11860630      76.15251047
Pt      85.86292505      88.08040630      77.53971255
Pt      85.86292505      84.15680630      74.76530838
Pt      84.47572297      82.19500630      76.15251047
Pt      87.25012713      82.19500630      76.15251047
Pt      85.86292505      84.15680630      77.53971255
Pt      85.86292505      80.23320630      74.76530838
Pt      84.47572297      78.27140630      76.15251047
Pt      87.25012713      78.27140630      76.15251047
Pt      85.86292505      80.23320630      77.53971255
Pt      85.86292505      76.30960630      74.76530838
Pt      84.47572297      74.34780630      76.15251047
Pt      87.25012713      74.34780630      76.15251047
Pt      85.86292505      76.30960630      77.53971255
Pt      85.86292505      72.38600630      74.76530838
Pt      84.47572297      70.42420630      76.15251047
Pt      87.25012713      70.42420630      76.15251047
Pt      85.86292505      72.38600630      77.53971255
Pt      85.86292505      68.46240630      74.76530838
Pt      84.47572297      66.50060630      76.15251047
Pt      87.25012713      66.50060630      76.15251047
Pt      85.86292505      68.46240630      77.53971255
Pt      85.86292505      64.53880630      74.76530838
Pt      84.47572297      62.57700630      76.15251047
Pt      87.25012713      62.57700630      76.15251047
Pt      85.86292505      64.53880630      77.53971255
Pt      85.86292505      60.61520630      74.76530838
Pt      84.47572297      58.65340630      76.15251047
Pt      87.25012713      58.65340630      76.15251047
Pt      85.86292505      60.61520630      77.53971255
Pt      85.86292505      56.69160630      74.76530838
Pt      84.47572297      54.72980630      76.15251047
Pt      85.86292505      56.69160630      77.53971255
Pt      83.08852088      99.85120630      77.53971255
Pt      81.70131880      97.88940630      78.92691463
Pt      84.47572297      97.88940630      78.92691463
Pt      83.08852088      99.85120630      80.31411672
Pt      83.08852088      95.92760630      77.53971255
Pt      81.70131880      93.96580630      78.92691463
Pt      84.47572297      93.96580630      78.92691463
Pt      83.08852088      95.92760630      80.31411672
Pt      83.08852088      92.00400630      77.53971255
Pt      81.70131880      90.04220630      78.92691463
Pt      84.47572297      90.04220630      78.92691463
Pt      83.08852088      92.00400630      80.31411672
Pt      83.08852088      88.08040630      77.53971255
Pt      81.70131880      86.11860630      78.92691463
Pt      84.47572297      86.11860630      78.92691463
Pt      83.08852088      88.08040630      80.31411672
Pt      83.08852088      84.15680630      77.53971255
Pt      81.70131880      82.19500630      78.92691463
Pt      84.47572297      82.19500630      78.92691463
Pt      83.08852088      84.15680630      80.31411672
Pt      83.08852088      80.23320630      77.53971255
Pt      81.70131880      78.27140630      78.92691463
Pt      84.47572297      78.27140630      78.92691463
Pt      83.08852088      80.23320630      80.31411672
Pt      83.08852088      76.30960630      77.53971255
Pt      81.70131880      74.34780630      78.92691463
Pt      84.47572297      74.34780630      78.92691463
Pt      83.08852088      76.30960630      80.31411672
Pt      83.08852088      72.38600630      77.53971255
Pt      81.70131880      70.42420630      78.92691463
Pt      84.47572297      70.42420630      78.92691463
Pt      83.08852088      72.38600630      80.31411672
Pt      83.08852088      68.46240630      77.53971255
Pt      81.70131880      66.50060630      78.92691463
Pt      84.47572297      66.50060630      78.92691463
Pt      83.08852088      68.46240630      80.31411672
Pt      83.08852088      64.53880630      77.53971255
Pt      81.70131880      62.57700630      78.92691463
Pt      84.47572297      62.57700630      78.92691463
Pt      83.08852088      64.53880630      80.31411672
Pt      83.08852088      60.61520630      77.53971255
Pt      81.70131880      58.65340630      78.92691463
Pt      84.47572297      58.65340630      78.92691463
Pt      83.08852088      60.61520630      80.31411672
Pt      83.08852088      56.69160630      77.53971255
Pt      81.70131880      54.72980630      78.92691463
Pt      84.47572297      54.72980630      78.92691463
Pt      83.08852088      56.69160630      80.31411672
Pt      83.08852088      52.76800630      77.53971255
Pt      83.08852088      52.76800630      80.31411672
Pt      80.31411672      99.85120630      80.31411672
Pt      78.92691463      97.88940630      81.70131880
Pt      81.70131880      97.88940630      81.70131880
Pt      80.31411672      99.85120630      83.08852088
Pt      80.31411672      95.92760630      80.31411672
Pt      78.92691463      93.96580630      81.70131880
Pt      81.70131880      93.96580630      81.70131880
Pt      80.31411672      95.92760630      83.08852088
Pt      80.31411672      92.00400630      80.31411672
Pt      78.92691463      90.04220630      81.70131880
Pt      81.70131880      90.04220630      81.70131880
Pt      80.31411672      92.00400630      83.08852088
Pt      80.31411672      88.08040630      80.31411672
Pt      78.92691463      86.11860630      81.70131880
Pt      81.70131880      86.11860630      81.70131880
Pt      80.31411672      88.08040630      83.08852088
Pt      80.31411672      84.15680630      80.31411672
Pt      78.92691463      82.19500630      81.70131880
Pt      81.70131880      82.19500630      81.70131880
Pt      80.31411672      84.15680630      83.08852088
Pt      80.31411672      80.23320630      80.31411672
Pt      78.92691463      78.27140630      81.70131880
Pt      81.70131880      78.27140630      81.70131880
Pt      80.31411672      80.23320630      83.08852088
Pt      80.31411672      76.30960630      80.31411672
Pt      78.92691463      74.34780630      81.70131880
Pt      81.70131880      74.34780630      81.70131880
Pt      80.31411672      76.30960630      83.08852088
Pt      80.31411672      72.38600630      80.31411672
Pt      78.92691463      70.42420630      81.70131880
Pt      81.70131880      70.42420630      81.70131880
Pt      80.31411672      72.38600630      83.08852088
Pt      80.31411672      68.46240630      80.31411672
Pt      78.92691463      66.50060630      81.70131880
Pt      81.70131880      66.50060630      81.70131880
Pt      80.31411672      68.46240630      83.08852088
Pt      80.31411672      64.53880630      80.31411672
Pt      78.92691463      62.57700630      81.70131880
Pt      81.70131880      62.57700630      81.70131880
Pt      80.31411672      64.53880630      83.08852088
Pt      80.31411672      60.61520630      80.31411672
Pt      78.92691463      58.65340630      81.70131880
Pt      81.70131880      58.65340630      81.70131880
Pt      80.31411672      60.61520630      83.08852088
Pt      80.31411672      56.69160630      80.31411672
Pt      78.92691463      54.72980630      81.70131880
Pt      81.70131880      54.72980630      81.70131880
Pt      80.31411672      56.69160630      83.08852088
Pt      80.31411672      52.76800630      80.31411672
Pt      80.31411672      52.76800630      83.08852088
Pt      77.53971255      99.85120630      83.08852088
Pt      76.15251047      97.88940630      84.47572297
Pt      78.92691463      97.88940630      84.47572297
Pt      77.53971255      95.92760630      83.08852088
Pt      76.15251047      93.96580630      84.47572297
Pt      78.92691463      93.96580630      84.47572297
Pt      77.53971255      95.92760630      85.86292505
Pt      77.53971255      92.00400630      83.08852088
Pt      76.15251047      90.04220630      84.47572297
Pt      78.92691463      90.04220630      84.47572297
Pt      77.53971255      92.00400630      85.86292505
Pt      77.53971255      88.08040630      83.08852088
Pt      76.15251047      86.11860630      84.47572297
Pt      78.92691463      86.11860630      84.47572297
Pt      77.53971255      88.08040630      85.86292505
Pt      77.53971255      84.15680630      83.08852088
Pt      76.15251047      82.19500630      84.47572297
Pt      78.92691463      82.19500630      84.47572297
Pt      77.53971255      84.15680630      85.86292505
Pt      77.53971255      80.23320630      83.08852088
Pt      76.15251047      78.27140630      84.47572297
Pt      78.92691463      78.27140630      84.47572297
Pt      77.53971255      80.23320630      85.86292505
Pt      77.53971255      76.30960630      83.08852088
Pt      76.15251047      74.34780630      84.47572297
Pt      78.92691463      74.34780630      84.47572297
Pt      77.53971255      76.30960630      85.86292505
Pt      77.53971255      72.38600630      83.08852088
Pt      76.15251047      70.42420630      84.47572297
Pt      78.92691463      70.42420630      84.47572297
Pt      77.53971255      72.38600630      85.86292505
Pt      77.53971255      68.46240630      83.08852088
Pt      76.15251047      66.50060630      84.47572297
Pt      78.92691463      66.50060630      84.47572297
Pt      77.53971255      68.46240630      85.86292505
Pt      77.53971255      64.53880630      83.08852088
Pt      76.15251047      62.57700630      84.47572297
Pt      78.92691463      62.57700630      84.47572297
Pt      77.53971255      64.53880630      85.86292505
Pt      77.53971255      60.61520630      83.08852088
Pt      76.15251047      58.65340630      84.47572297
Pt      78.92691463      58.65340630      84.47572297
Pt      77.53971255      60.61520630      85.86292505
Pt      77.53971255      56.69160630      83.08852088
Pt      76.15251047      54.72980630      84.47572297
Pt      78.92691463      54.72980630      84.47572297
Pt      77.53971255      56.69160630      85.86292505
Pt      77.53971255      52.76800630      83.08852088
Pt      74.76530838      95.92760630      85.86292505
Pt      73.37810630      93.96580630      87.25012713
Pt      76.15251047      93.96580630      87.25012713
Pt      74.76530838      92.00400630      85.86292505
Pt      73.37810630      90.04220630      87.25012713
Pt      76.15251047      90.04220630      87.25012713
Pt      74.76530838      92.00400630      88.63732922
Pt      74.76530838      88.08040630      85.86292505
Pt      73.37810630      86.11860630      87.25012713
Pt      76.15251047      86.11860630      87.25012713
Pt      74.76530838      88.08040630      88.63732922
Pt      74.76530838      84.15680630      85.86292505
Pt      73.37810630      82.19500630      87.25012713
Pt      76.15251047      82.19500630      87.25012713
Pt      74.76530838      84.15680630      88.63732922
Pt      74.76530838      80.23320630      85.86292505
Pt      73.37810630      78.27140630      87.25012713
Pt      76.15251047      78.27140630      87.25012713
Pt      74.76530838      80.23320630      88.63732922
Pt      74.76530838      76.30960630      85.86292505
Pt      73.37810630      74.34780630      87.25012713
Pt      76.15251047      74.34780630      87.25012713
Pt      74.76530838      76.30960630      88.63732922
Pt      74.76530838      72.38600630      85.86292505
Pt      73.37810630      70.42420630      87.25012713
Pt      76.15251047      70.42420630      87.25012713
Pt      74.76530838      72.38600630      88.63732922
Pt      74.76530838      68.46240630      85.86292505
Pt      73.37810630      66.50060630      87.25012713
Pt      76.15251047      66.50060630      87.25012713
Pt      74.76530838      68.46240630      88.63732922
Pt      74.76530838      64.53880630      85.86292505
Pt      73.37810630      62.57700630      87.25012713
Pt      76.15251047      62.57700630      87.25012713
Pt      74.76530838      64.53880630      88.63732922
Pt      74.76530838      60.61520630      85.86292505
Pt      73.37810630      58.65340630      87.25012713
Pt      76.15251047      58.65340630      87.25012713
Pt      74.76530838      60.61520630      88.63732922
Pt      74.76530838      56.69160630      85.86292505
Pt      71.99090422      92.00400630      88.63732922
Pt      70.60370213      90.04220630      90.02453130
Pt      73.37810630      90.04220630      90.02453130
Pt      71.99090422      88.08040630      88.63732922
Pt      70.60370213      86.11860630      90.02453130
Pt      73.37810630      86.11860630      90.02453130
Pt      71.99090422      88.08040630      91.41173338
Pt      71.99090422      84.15680630      88.63732922
Pt      70.60370213      82.19500630      90.02453130
Pt      73.37810630      82.19500630      90.02453130
Pt      71.99090422      84.15680630      91.41173338
Pt      71.99090422      80.23320630      88.63732922
Pt      70.60370213      78.27140630      90.02453130
Pt      73.37810630      78.27140630      90.02453130
Pt      71.99090422      80.23320630      91.41173338
Pt      71.99090422      76.30960630      88.63732922
Pt      70.60370213      74.34780630      90.02453130
Pt      73.37810630      74.34780630      90.02453130
Pt      71.99090422      76.30960630      91.41173338
Pt      71.99090422      72.38600630      88.63732922
Pt      70.60370213      70.42420630      90.02453130
Pt      73.37810630      70.42420630      90.02453130
Pt      71.99090422      72.38600630      91.41173338
Pt      71.99090422      68.46240630      88.63732922
Pt      70.60370213      66.50060630      90.02453130
Pt      73.37810630      66.50060630      90.02453130
Pt      71.99090422      68.46240630      91.41173338
Pt      71.99090422      64.53880630      88.63732922
Pt      70.60370213      62.57700630      90.02453130
Pt      73.37810630      62.57700630      90.02453130
Pt      71.99090422      64.53880630      91.41173338
Pt      71.99090422      60.61520630      88.63732922
Pt      69.21650005      88.08040630      91.41173338
Pt      67.82929797      86.11860630      92.79893547
Pt      70.60370213      86.11860630      92.79893547
Pt      69.21650005      84.15680630      91.41173338
Pt      67.82929797      82.19500630      92.79893547
Pt      70.60370213      82.19500630      92.79893547
Pt      69.21650005      84.15680630      94.18613755
Pt      69.21650005      80.23320630      91.41173338
Pt      67.82929797      78.27140630      92.79893547
Pt      70.60370213      78.27140630      92.79893547
Pt      69.21650005      80.23320630      94.18613755
Pt      69.21650005      76.30960630      91.41173338
Pt      67.82929797      74.34780630      92.79893547
Pt      70.60370213      74.34780630      92.79893547
Pt      69.21650005      76.30960630      94.18613755
Pt      69.21650005      72.38600630      91.41173338
Pt      67.82929797      70.42420630      92.79893547
Pt      70.60370213      70.42420630      92.79893547
Pt      69.21650005      72.38600630      94.18613755
Pt      69.21650005      68.46240630      91.41173338
Pt      67.82929797      66.50060630      92.79893547
Pt      70.60370213      66.50060630      92.79893547
Pt      69.21650005      68.46240630      94.18613755
Pt      69.21650005      64.53880630      91.41173338
Pt      66.44209588      84.15680630      94.18613755
Pt      65.05489380      82.19500630      95.57333963
Pt      67.82929797      82.19500630      95.57333963
Pt      66.44209588      80.23320630      94.18613755
Pt      65.05489380      78.27140630      95.57333963
Pt      67.82929797      78.27140630      95.57333963
Pt      66.44209588      80.23320630      96.96054172
Pt      66.44209588      76.30960630      94.18613755
Pt      65.05489380      74.34780630      95.57333963
Pt      67.82929797      74.34780630      95.57333963
Pt      66.44209588      76.30960630      96.96054172
Pt      66.44209588      72.38600630      94.18613755
Pt      65.05489380      70.42420630      95.57333963
Pt      67.82929797      70.42420630      95.57333963
Pt      66.44209588      72.38600630      96.96054172
Pt      66.44209588      68.46240630      94.18613755
Pt      63.66769172      80.23320630      96.96054172
Pt      65.05489380      78.27140630      98.34774380
Pt      63.66769172      76.30960630      96.96054172
Pt      65.05489380      74.34780630      98.34774380
Pt      63.66769172      72.38600630      96.96054172
Pt      98.34774380      78.27140630      67.82929797
Pt      98.34774380      74.34780630      67.82929797
Pt      95.57333963      82.19500630      70.60370213
Pt      96.96054172      80.23320630      69.21650005
Pt      95.57333963      78.27140630      70.60370213
Pt      98.34774380      78.27140630      70.60370213
Pt      96.96054172      80.23320630      71.99090422
Pt      96.96054172      76.30960630      69.21650005
Pt      95.57333963      74.34780630      70.60370213
Pt      98.34774380      74.34780630      70.60370213
Pt      96.96054172      76.30960630      71.99090422
Pt      96.96054172      72.38600630      69.21650005
Pt      95.57333963      70.42420630      70.60370213
Pt      96.96054172      72.38600630      71.99090422
Pt      92.79893547      86.11860630      73.37810630
Pt      94.18613755      84.15680630      71.99090422
Pt      92.79893547      82.19500630      73.37810630
Pt      95.57333963      82.19500630      73.37810630
Pt      94.18613755      84.15680630      74.76530838
Pt      94.18613755      80.23320630      71.99090422
Pt      92.79893547      78.27140630      73.37810630
Pt      95.57333963      78.27140630      73.37810630
Pt      94.18613755      80.23320630      74.76530838
Pt      94.18613755      76.30960630      71.99090422
Pt      92.79893547      74.34780630      73.37810630
Pt      95.57333963      74.34780630      73.37810630
Pt      94.18613755      76.30960630      74.76530838
Pt      94.18613755      72.38600630      71.99090422
Pt      92.79893547      70.42420630      73.37810630
Pt      95.57333963      70.42420630      73.37810630
Pt      94.18613755      72.38600630      74.76530838
Pt      94.18613755      68.46240630      71.99090422
Pt      92.79893547      66.50060630      73.37810630
Pt      94.18613755      68.46240630      74.76530838
Pt      90.02453130      90.04220630      76.15251047
Pt      91.41173338      88.08040630      74.76530838
Pt      90.02453130      86.11860630      76.15251047
Pt      92.79893547      86.11860630      76.15251047
Pt      91.41173338      88.08040630      77.53971255
Pt      91.41173338      84.15680630      74.76530838
Pt      90.02453130      82.19500630      76.15251047
Pt      92.79893547      82.19500630      76.15251047
Pt      91.41173338      84.15680630      77.53971255
Pt      91.41173338      80.23320630      74.76530838
Pt      90.02453130      78.27140630      76.15251047
Pt      92.79893547      78.27140630      76.15251047
Pt      91.41173338      80.23320630      77.53971255
Pt      91.41173338      76.30960630      74.76530838
Pt      90.02453130      74.34780630      76.15251047
Pt      92.79893547      74.34780630      76.15251047
Pt      91.41173338      76.30960630      77.53971255
Pt      91.41173338      72.38600630      74.76530838
Pt      90.02453130      70.42420630      76.15251047
Pt      92.79893547      70.42420630      76.15251047
Pt      91.41173338      72.38600630      77.53971255
Pt      91.41173338      68.46240630      74.76530838
Pt      90.02453130      66.50060630      76.15251047
Pt      92.79893547      66.50060630      76.15251047
Pt      91.41173338      68.46240630      77.53971255
Pt      91.41173338      64.53880630      74.76530838
Pt      90.02453130      62.57700630      76.15251047
Pt      91.41173338      64.53880630      77.53971255
Pt      87.25012713      93.96580630      78.92691463
Pt      88.63732922      92.00400630      77.53971255
Pt      87.25012713      90.04220630      78.92691463
Pt      90.02453130      90.04220630      78.92691463
Pt      88.63732922      92.00400630      80.31411672
Pt      88.63732922      88.08040630      77.53971255
Pt      87.25012713      86.11860630      78.92691463
Pt      90.02453130      86.11860630      78.92691463
Pt      88.63732922      88.08040630      80.31411672
Pt      88.63732922      84.15680630      77.53971255
Pt      87.25012713      82.19500630      78.92691463
Pt      90.02453130      82.19500630      78.92691463
Pt      88.63732922      84.15680630      80.31411672
Pt      88.63732922      80.23320630      77.53971255
Pt      87.25012713      78.27140630      78.92691463
Pt      90.02453130      78.27140630      78.92691463
Pt      88.63732922      80.23320630      80.31411672
Pt      88.63732922      76.30960630      77.53971255
Pt      87.25012713      74.34780630      78.92691463
Pt      90.02453130      74.34780630      78.92691463
Pt      88.63732922      76.30960630      80.31411672
Pt      88.63732922      72.38600630      77.53971255
Pt      87.25012713      70.42420630      78.92691463
Pt      90.02453130      70.42420630      78.92691463
Pt      88.63732922      72.38600630      80.31411672
Pt      88.63732922      68.46240630      77.53971255
Pt      87.25012713      66.50060630      78.92691463
Pt      90.02453130      66.50060630      78.92691463
Pt      88.63732922      68.46240630      80.31411672
Pt      88.63732922      64.53880630      77.53971255
Pt      87.25012713      62.57700630      78.92691463
Pt      90.02453130      62.57700630      78.92691463
Pt      88.63732922      64.53880630      80.31411672
Pt      88.63732922      60.61520630      77.53971255
Pt      87.25012713      58.65340630      78.92691463
Pt      88.63732922      60.61520630      80.31411672
Pt      84.47572297      97.88940630      81.70131880
Pt      85.86292505      95.92760630      80.31411672
Pt      84.47572297      93.96580630      81.70131880
Pt      87.25012713      93.96580630      81.70131880
Pt      85.86292505      95.92760630      83.08852088
Pt      85.86292505      92.00400630      80.31411672
Pt      84.47572297      90.04220630      81.70131880
Pt      87.25012713      90.04220630      81.70131880
Pt      85.86292505      92.00400630      83.08852088
Pt      85.86292505      88.08040630      80.31411672
Pt      84.47572297      86.11860630      81.70131880
Pt      87.25012713      86.11860630      81.70131880
Pt      85.86292505      88.08040630      83.08852088
Pt      85.86292505      84.15680630      80.31411672
Pt      84.47572297      82.19500630      81.70131880
Pt      87.25012713      82.19500630      81.70131880
Pt      85.86292505      84.15680630      83.08852088
Pt      85.86292505      80.23320630      80.31411672
Pt      84.47572297      78.27140630      81.70131880
Pt      87.25012713      78.27140630      81.70131880
Pt      85.86292505      80.23320630      83.08852088
Pt      85.86292505      76.30960630      80.31411672
Pt      84.47572297      74.34780630      81.70131880
Pt      87.25012713      74.34780630      81.70131880
Pt      85.86292505      76.30960630      83.08852088
Pt      85.86292505      72.38600630      80.31411672
Pt      84.47572297      70.42420630      81.70131880
Pt      87.25012713      70.42420630      81.70131880
Pt      85.86292505      72.38600630      83.08852088
Pt      85.86292505      68.46240630      80.31411672
Pt      84.47572297      66.50060630      81.70131880
Pt      87.25012713      66.50060630      81.70131880
Pt      85.86292505      68.46240630      83.08852088
Pt      85.86292505      64.53880630      80.31411672
Pt      84.47572297      62.57700630      81.70131880
Pt      87.25012713      62.57700630      81.70131880
Pt      85.86292505      64.53880630      83.08852088
Pt      85.86292505      60.61520630      80.31411672
Pt      84.47572297      58.65340630      81.70131880
Pt      87.25012713      58.65340630      81.70131880
Pt      85.86292505      60.61520630      83.08852088
Pt      85.86292505      56.69160630      80.31411672
Pt      84.47572297      54.72980630      81.70131880
Pt      85.86292505      56.69160630      83.08852088
Pt      81.70131880      97.88940630      84.47572297
Pt      83.08852088      95.92760630      83.08852088
Pt      81.70131880      93.96580630      84.47572297
Pt      84.47572297      93.96580630      84.47572297
Pt      83.08852088      95.92760630      85.86292505
Pt      83.08852088      92.00400630      83.08852088
Pt      81.70131880      90.04220630      84.47572297
Pt      84.47572297      90.04220630      84.47572297
Pt      83.08852088      92.00400630      85.86292505
Pt      83.08852088      88.08040630      83.08852088
Pt      81.70131880      86.11860630      84.47572297
Pt      84.47572297      86.11860630      84.47572297
Pt      83.08852088      88.08040630      85.86292505
Pt      83.08852088      84.15680630      83.08852088
Pt      81.70131880      82.19500630      84.47572297
Pt      84.47572297      82.19500630      84.47572297
Pt      83.08852088      84.15680630      85.86292505
Pt      83.08852088      80.23320630      83.08852088
Pt      81.70131880      78.27140630      84.47572297
Pt      84.47572297      78.27140630      84.47572297
Pt      83.08852088      80.23320630      85.86292505
Pt      83.08852088      76.30960630      83.08852088
Pt      81.70131880      74.34780630      84.47572297
Pt      84.47572297      74.34780630      84.47572297
Pt      83.08852088      76.30960630      85.86292505
Pt      83.08852088      72.38600630      83.08852088
Pt      81.70131880      70.42420630      84.47572297
Pt      84.47572297      70.42420630      84.47572297
Pt      83.08852088      72.38600630      85.86292505
Pt      83.08852088      68.46240630      83.08852088
Pt      81.70131880      66.50060630      84.47572297
Pt      84.47572297      66.50060630      84.47572297
Pt      83.08852088      68.46240630      85.86292505
Pt      83.08852088      64.53880630      83.08852088
Pt      81.70131880      62.57700630      84.47572297
Pt      84.47572297      62.57700630      84.47572297
Pt      83.08852088      64.53880630      85.86292505
Pt      83.08852088      60.61520630      83.08852088
Pt      81.70131880      58.65340630      84.47572297
Pt      84.47572297      58.65340630      84.47572297
Pt      83.08852088      60.61520630      85.86292505
Pt      83.08852088      56.69160630      83.08852088
Pt      81.70131880      54.72980630      84.47572297
Pt      83.08852088      56.69160630      85.86292505
Pt      80.31411672      95.92760630      85.86292505
Pt      78.92691463      93.96580630      87.25012713
Pt      81.70131880      93.96580630      87.25012713
Pt      80.31411672      92.00400630      85.86292505
Pt      78.92691463      90.04220630      87.25012713
Pt      81.70131880      90.04220630      87.25012713
Pt      80.31411672      92.00400630      88.63732922
Pt      80.31411672      88.08040630      85.86292505
Pt      78.92691463      86.11860630      87.25012713
Pt      81.70131880      86.11860630      87.25012713
Pt      80.31411672      88.08040630      88.63732922
Pt      80.31411672      84.15680630      85.86292505
Pt      78.92691463      82.19500630      87.25012713
Pt      81.70131880      82.19500630      87.25012713
Pt      80.31411672      84.15680630      88.63732922
Pt      80.31411672      80.23320630      85.86292505
Pt      78.92691463      78.27140630      87.25012713
Pt      81.70131880      78.27140630      87.25012713
Pt      80.31411672      80.23320630      88.63732922
Pt      80.31411672      76.30960630      85.86292505
Pt      78.92691463      74.34780630      87.25012713
Pt      81.70131880      74.34780630      87.25012713
Pt      80.31411672      76.30960630      88.63732922
Pt      80.31411672      72.38600630      85.86292505
Pt      78.92691463      70.42420630      87.25012713
Pt      81.70131880      70.42420630      87.25012713
Pt      80.31411672      72.38600630      88.63732922
Pt      80.31411672      68.46240630      85.86292505
Pt      78.92691463      66.50060630      87.25012713
Pt      81.70131880      66.50060630      87.25012713
Pt      80.31411672      68.46240630      88.63732922
Pt      80.31411672      64.53880630      85.86292505
Pt      78.92691463      62.57700630      87.25012713
Pt      81.70131880      62.57700630      87.25012713
Pt      80.31411672      64.53880630      88.63732922
Pt      80.31411672      60.61520630      85.86292505
Pt      78.92691463      58.65340630      87.25012713
Pt      81.70131880      58.65340630      87.25012713
Pt      80.31411672      60.61520630      88.63732922
Pt      80.31411672      56.69160630      85.86292505
Pt      77.53971255      92.00400630      88.63732922
Pt      76.15251047      90.04220630      90.02453130
Pt      78.92691463      90.04220630      90.02453130
Pt      77.53971255      88.08040630      88.63732922
Pt      76.15251047      86.11860630      90.02453130
Pt      78.92691463      86.11860630      90.02453130
Pt      77.53971255      88.08040630      91.41173338
Pt      77.53971255      84.15680630      88.63732922
Pt      76.15251047      82.19500630      90.02453130
Pt      78.92691463      82.19500630      90.02453130
Pt      77.53971255      84.15680630      91.41173338
Pt      77.53971255      80.23320630      88.63732922
Pt      76.15251047      78.27140630      90.02453130
Pt      78.92691463      78.27140630      90.02453130
Pt      77.53971255      80.23320630      91.41173338
Pt      77.53971255      76.30960630      88.63732922
Pt      76.15251047      74.34780630      90.02453130
Pt      78.92691463      74.34780630      90.02453130
Pt      77.53971255      76.30960630      91.41173338
Pt      77.53971255      72.38600630      88.63732922
Pt      76.15251047      70.42420630      90.02453130
Pt      78.92691463      70.42420630      90.02453130
Pt      77.53971255      72.38600630      91.41173338
Pt      77.53971255      68.46240630      88.63732922
Pt      76.15251047      66.50060630      90.02453130
Pt      78.92691463      66.50060630      90.02453130
Pt      77.53971255      68.46240630      91.41173338
Pt      77.53971255      64.53880630      88.63732922
Pt      76.15251047      62.57700630      90.02453130
Pt      78.92691463      62.57700630      90.02453130
Pt      77.53971255      64.53880630      91.41173338
Pt      77.53971255      60.61520630      88.63732922
Pt      74.76530838      88.08040630      91.41173338
Pt      73.37810630      86.11860630      92.79893547
Pt      76.15251047      86.11860630      92.79893547
Pt      74.76530838      84.15680630      91.41173338
Pt      73.37810630      82.19500630      92.79893547
Pt      76.15251047      82.19500630      92.79893547
Pt      74.76530838      84.15680630      94.18613755
Pt      74.76530838      80.23320630      91.41173338
Pt      73.37810630      78.27140630      92.79893547
Pt      76.15251047      78.27140630      92.79893547
Pt      74.76530838      80.23320630      94.18613755
Pt      74.76530838      76.30960630      91.41173338
Pt      73.37810630      74.34780630      92.79893547
Pt      76.15251047      74.34780630      92.79893547
Pt      74.76530838      76.30960630      94.18613755
Pt      74.76530838      72.38600630      91.41173338
Pt      73.37810630      70.42420630      92.79893547
Pt      76.15251047      70.42420630      92.79893547
Pt      74.76530838      72.38600630      94.18613755
Pt      74.76530838      68.46240630      91.41173338
Pt      73.37810630      66.50060630      92.79893547
Pt      76.15251047      66.50060630      92.79893547
Pt      74.76530838      68.46240630      94.18613755
Pt      74.76530838      64.53880630      91.41173338
Pt      71.99090422      84.15680630      94.18613755
Pt      70.60370213      82.19500630      95.57333963
Pt      73.37810630      82.19500630      95.57333963
Pt      71.99090422      80.23320630      94.18613755
Pt      70.60370213      78.27140630      95.57333963
Pt      73.37810630      78.27140630      95.57333963
Pt      71.99090422      80.23320630      96.96054172
Pt      71.99090422      76.30960630      94.18613755
Pt      70.60370213      74.34780630      95.57333963
Pt      73.37810630      74.34780630      95.57333963
Pt      71.99090422      76.30960630      96.96054172
Pt      71.99090422      72.38600630      94.18613755
Pt      70.60370213      70.42420630      95.57333963
Pt      73.37810630      70.42420630      95.57333963
Pt      71.99090422      72.38600630      96.96054172
Pt      71.99090422      68.46240630      94.18613755
Pt      69.21650005      80.23320630      96.96054172
Pt      67.82929797      78.27140630      98.34774380
Pt      70.60370213      78.27140630      98.34774380
Pt      69.21650005      76.30960630      96.96054172
Pt      67.82929797      74.34780630      98.34774380
Pt      70.60370213      74.34780630      98.34774380
Pt      69.21650005      72.38600630      96.96054172
Pt      98.34774380      78.27140630      73.37810630
Pt      98.34774380      74.34780630      73.37810630
Pt      95.57333963      82.19500630      76.15251047
Pt      96.96054172      80.23320630      74.76530838
Pt      95.57333963      78.27140630      76.15251047
Pt      98.34774380      78.27140630      76.15251047
Pt      96.96054172      80.23320630      77.53971255
Pt      96.96054172      76.30960630      74.76530838
Pt      95.57333963      74.34780630      76.15251047
Pt      98.34774380      74.34780630      76.15251047
Pt      96.96054172      76.30960630      77.53971255
Pt      96.96054172      72.38600630      74.76530838
Pt      95.57333963      70.42420630      76.15251047
Pt      96.96054172      72.38600630      77.53971255
Pt      92.79893547      86.11860630      78.92691463
Pt      94.18613755      84.15680630      77.53971255
Pt      92.79893547      82.19500630      78.92691463
Pt      95.57333963      82.19500630      78.92691463
Pt      94.18613755      84.15680630      80.31411672
Pt      94.18613755      80.23320630      77.53971255
Pt      92.79893547      78.27140630      78.92691463
Pt      95.57333963      78.27140630      78.92691463
Pt      94.18613755      80.23320630      80.31411672
Pt      94.18613755      76.30960630      77.53971255
Pt      92.79893547      74.34780630      78.92691463
Pt      95.57333963      74.34780630      78.92691463
Pt      94.18613755      76.30960630      80.31411672
Pt      94.18613755      72.38600630      77.53971255
Pt      92.79893547      70.42420630      78.92691463
Pt      95.57333963      70.42420630      78.92691463
Pt      94.18613755      72.38600630      80.31411672
Pt      94.18613755      68.46240630      77.53971255
Pt      92.79893547      66.50060630      78.92691463
Pt      94.18613755      68.46240630      80.31411672
Pt      90.02453130      90.04220630      81.70131880
Pt      91.41173338      88.08040630      80.31411672
Pt      90.02453130      86.11860630      81.70131880
Pt      92.79893547      86.11860630      81.70131880
Pt      91.41173338      88.08040630      83.08852088
Pt      91.41173338      84.15680630      80.31411672
Pt      90.02453130      82.19500630      81.70131880
Pt      92.79893547      82.19500630      81.70131880
Pt      91.41173338      84.15680630      83.08852088
Pt      91.41173338      80.23320630      80.31411672
Pt      90.02453130      78.27140630      81.70131880
Pt      92.79893547      78.27140630      81.70131880
Pt      91.41173338      80.23320630      83.08852088
Pt      91.41173338      76.30960630      80.31411672
Pt      90.02453130      74.34780630      81.70131880
Pt      92.79893547      74.34780630      81.70131880
Pt      91.41173338      76.30960630      83.08852088
Pt      91.41173338      72.38600630      80.31411672
Pt      90.02453130      70.42420630      81.70131880
Pt      92.79893547      70.42420630      81.70131880
Pt      91.41173338      72.38600630      83.08852088
Pt      91.41173338      68.46240630      80.31411672
Pt      90.02453130      66.50060630      81.70131880
Pt      92.79893547      66.50060630      81.70131880
Pt      91.41173338      68.46240630      83.08852088
Pt      91.41173338      64.53880630      80.31411672
Pt      90.02453130      62.57700630      81.70131880
Pt      91.41173338      64.53880630      83.08852088
Pt      87.25012713      93.96580630      84.47572297
Pt      88.63732922      92.00400630      83.08852088
Pt      87.25012713      90.04220630      84.47572297
Pt      90.02453130      90.04220630      84.47572297
Pt      88.63732922      92.00400630      85.86292505
Pt      88.63732922      88.08040630      83.08852088
Pt      87.25012713      86.11860630      84.47572297
Pt      90.02453130      86.11860630      84.47572297
Pt      88.63732922      88.08040630      85.86292505
Pt      88.63732922      84.15680630      83.08852088
Pt      87.25012713      82.19500630      84.47572297
Pt      90.02453130      82.19500630      84.47572297
Pt      88.63732922      84.15680630      85.86292505
Pt      88.63732922      80.23320630      83.08852088
Pt      87.25012713      78.27140630      84.47572297
Pt      90.02453130      78.27140630      84.47572297
Pt      88.63732922      80.23320630      85.86292505
Pt      88.63732922      76.30960630      83.08852088
Pt      87.25012713      74.34780630      84.47572297
Pt      90.02453130      74.34780630      84.47572297
Pt      88.63732922      76.30960630      85.86292505
Pt      88.63732922      72.38600630      83.08852088
Pt      87.25012713      70.42420630      84.47572297
Pt      90.02453130      70.42420630      84.47572297
Pt      88.63732922      72.38600630      85.86292505
Pt      88.63732922      68.46240630      83.08852088
Pt      87.25012713      66.50060630      84.47572297
Pt      90.02453130      66.50060630      84.47572297
Pt      88.63732922      68.46240630      85.86292505
Pt      88.63732922      64.53880630      83.08852088
Pt      87.25012713      62.57700630      84.47572297
Pt      90.02453130      62.57700630      84.47572297
Pt      88.63732922      64.53880630      85.86292505
Pt      88.63732922      60.61520630      83.08852088
Pt      87.25012713      58.65340630      84.47572297
Pt      88.63732922      60.61520630      85.86292505
Pt      84.47572297      93.96580630      87.25012713
Pt      85.86292505      92.00400630      85.86292505
Pt      84.47572297      90.04220630      87.25012713
Pt      87.25012713      90.04220630      87.25012713
Pt      85.86292505      92.00400630      88.63732922
Pt      85.86292505      88.08040630      85.86292505
Pt      84.47572297      86.11860630      87.25012713
Pt      87.25012713      86.11860630      87.25012713
Pt      85.86292505      88.08040630      88.63732922
Pt      85.86292505      84.15680630      85.86292505
Pt      84.47572297      82.19500630      87.25012713
Pt      87.25012713      82.19500630      87.25012713
Pt      85.86292505      84.15680630      88.63732922
Pt      85.86292505      80.23320630      85.86292505
Pt      84.47572297      78.27140630      87.25012713
Pt      87.25012713      78.27140630      87.25012713
Pt      85.86292505      80.23320630      88.63732922
Pt      85.86292505      76.30960630      85.86292505
Pt      84.47572297      74.34780630      87.25012713
Pt      87.25012713      74.34780630      87.25012713
Pt      85.86292505      76.30960630      88.63732922
Pt      85.86292505      72.38600630      85.86292505
Pt      84.47572297      70.42420630      87.25012713
Pt      87.25012713      70.42420630      87.25012713
Pt      85.86292505      72.38600630      88.63732922
Pt      85.86292505      68.46240630      85.86292505
Pt      84.47572297      66.50060630      87.25012713
Pt      87.25012713      66.50060630      87.25012713
Pt      85.86292505      68.46240630      88.63732922
Pt      85.86292505      64.53880630      85.86292505
Pt      84.47572297      62.57700630      87.25012713
Pt      87.25012713      62.57700630      87.25012713
Pt      85.86292505      64.53880630      88.63732922
Pt      85.86292505      60.61520630      85.86292505
Pt      84.47572297      58.65340630      87.25012713
Pt      85.86292505      60.61520630      88.63732922
Pt      83.08852088      92.00400630      88.63732922
Pt      81.70131880      90.04220630      90.02453130
Pt      84.47572297      90.04220630      90.02453130
Pt      83.08852088      88.08040630      88.63732922
Pt      81.70131880      86.11860630      90.02453130
Pt      84.47572297      86.11860630      90.02453130
Pt      83.08852088      88.08040630      91.41173338
Pt      83.08852088      84.15680630      88.63732922
Pt      81.70131880      82.19500630      90.02453130
Pt      84.47572297      82.19500630      90.02453130
Pt      83.08852088      84.15680630      91.41173338
Pt      83.08852088      80.23320630      88.63732922
Pt      81.70131880      78.27140630      90.02453130
Pt      84.47572297      78.27140630      90.02453130
Pt      83.08852088      80.23320630      91.41173338
Pt      83.08852088      76.30960630      88.63732922
Pt      81.70131880      74.34780630      90.02453130
Pt      84.47572297      74.34780630      90.02453130
Pt      83.08852088      76.30960630      91.41173338
Pt      83.08852088      72.38600630      88.63732922
Pt      81.70131880      70.42420630      90.02453130
Pt      84.47572297      70.42420630      90.02453130
Pt      83.08852088      72.38600630      91.41173338
Pt      83.08852088      68.46240630      88.63732922
Pt      81.70131880      66.50060630      90.02453130
Pt      84.47572297      66.50060630      90.02453130
Pt      83.08852088      68.46240630      91.41173338
Pt      83.08852088      64.53880630      88.63732922
Pt      81.70131880      62.57700630      90.02453130
Pt      84.47572297      62.57700630      90.02453130
Pt      83.08852088      64.53880630      91.41173338
Pt      83.08852088      60.61520630      88.63732922
Pt      80.31411672      88.08040630      91.41173338
Pt      78.92691463      86.11860630      92.79893547
Pt      81.70131880      86.11860630      92.79893547
Pt      80.31411672      84.15680630      91.41173338
Pt      78.92691463      82.19500630      92.79893547
Pt      81.70131880      82.19500630      92.79893547
Pt      80.31411672      84.15680630      94.18613755
Pt      80.31411672      80.23320630      91.41173338
Pt      78.92691463      78.27140630      92.79893547
Pt      81.70131880      78.27140630      92.79893547
Pt      80.31411672      80.23320630      94.18613755
Pt      80.31411672      76.30960630      91.41173338
Pt      78.92691463      74.34780630      92.79893547
Pt      81.70131880      74.34780630      92.79893547
Pt      80.31411672      76.30960630      94.18613755
Pt      80.31411672      72.38600630      91.41173338
Pt      78.92691463      70.42420630      92.79893547
Pt      81.70131880      70.42420630      92.79893547
Pt      80.31411672      72.38600630      94.18613755
Pt      80.31411672      68.46240630      91.41173338
Pt      78.92691463      66.50060630      92.79893547
Pt      81.70131880      66.50060630      92.79893547
Pt      80.31411672      68.46240630      94.18613755
Pt      80.31411672      64.53880630      91.41173338
Pt      77.53971255      84.15680630      94.18613755
Pt      76.15251047      82.19500630      95.57333963
Pt      78.92691463      82.19500630      95.57333963
Pt      77.53971255      80.23320630      94.18613755
Pt      76.15251047      78.27140630      95.57333963
Pt      78.92691463      78.27140630      95.57333963
Pt      77.53971255      80.23320630      96.96054172
Pt      77.53971255      76.30960630      94.18613755
Pt      76.15251047      74.34780630      95.57333963
Pt      78.92691463      74.34780630      95.57333963
Pt      77.53971255      76.30960630      96.96054172
Pt      77.53971255      72.38600630      94.18613755
Pt      76.15251047      70.42420630      95.57333963
Pt      78.92691463      70.42420630      95.57333963
Pt      77.53971255      72.38600630      96.96054172
Pt      77.53971255      68.46240630      94.18613755
Pt      74.76530838      80.23320630      96.96054172
Pt      73.37810630      78.27140630      98.34774380
Pt      76.15251047      78.27140630      98.34774380
Pt      74.76530838      76.30960630      96.96054172
Pt      73.37810630      74.34780630      98.34774380
Pt      76.15251047      74.34780630      98.34774380
Pt      74.76530838      72.38600630      96.96054172
Pt      98.34774380      78.27140630      78.92691463
Pt      98.34774380      74.34780630      78.92691463
Pt      95.57333963      82.19500630      81.70131880
Pt      96.96054172      80.23320630      80.31411672
Pt      95.57333963      78.27140630      81.70131880
Pt      98.34774380      78.27140630      81.70131880
Pt      96.96054172      80.23320630      83.08852088
Pt      96.96054172      76.30960630      80.31411672
Pt      95.57333963      74.34780630      81.70131880
Pt      98.34774380      74.34780630      81.70131880
Pt      96.96054172      76.30960630      83.08852088
Pt      96.96054172      72.38600630      80.31411672
Pt      95.57333963      70.42420630      81.70131880
Pt      96.96054172      72.38600630      83.08852088
Pt      92.79893547      86.11860630      84.47572297
Pt      94.18613755      84.15680630      83.08852088
Pt      92.79893547      82.19500630      84.47572297
Pt      95.57333963      82.19500630      84.47572297
Pt      94.18613755      84.15680630      85.86292505
Pt      94.18613755      80.23320630      83.08852088
Pt      92.79893547      78.27140630      84.47572297
Pt      95.57333963      78.27140630      84.47572297
Pt      94.18613755      80.23320630      85.86292505
Pt      94.18613755      76.30960630      83.08852088
Pt      92.79893547      74.34780630      84.47572297
Pt      95.57333963      74.34780630      84.47572297
Pt      94.18613755      76.30960630      85.86292505
Pt      94.18613755      72.38600630      83.08852088
Pt      92.79893547      70.42420630      84.47572297
Pt      95.57333963      70.42420630      84.47572297
Pt      94.18613755      72.38600630      85.86292505
Pt      94.18613755      68.46240630      83.08852088
Pt      92.79893547      66.50060630      84.47572297
Pt      94.18613755      68.46240630      85.86292505
Pt      90.02453130      90.04220630      87.25012713
Pt      91.41173338      88.08040630      85.86292505
Pt      90.02453130      86.11860630      87.25012713
Pt      92.79893547      86.11860630      87.25012713
Pt      91.41173338      88.08040630      88.63732922
Pt      91.41173338      84.15680630      85.86292505
Pt      90.02453130      82.19500630      87.25012713
Pt      92.79893547      82.19500630      87.25012713
Pt      91.41173338      84.15680630      88.63732922
Pt      91.41173338      80.23320630      85.86292505
Pt      90.02453130      78.27140630      87.25012713
Pt      92.79893547      78.27140630      87.25012713
Pt      91.41173338      80.23320630      88.63732922
Pt      91.41173338      76.30960630      85.86292505
Pt      90.02453130      74.34780630      87.25012713
Pt      92.79893547      74.34780630      87.25012713
Pt      91.41173338      76.30960630      88.63732922
Pt      91.41173338      72.38600630      85.86292505
Pt      90.02453130      70.42420630      87.25012713
Pt      92.79893547      70.42420630      87.25012713
Pt      91.41173338      72.38600630      88.63732922
Pt      91.41173338      68.46240630      85.86292505
Pt      90.02453130      66.50060630      87.25012713
Pt      92.79893547      66.50060630      87.25012713
Pt      91.41173338      68.46240630      88.63732922
Pt      91.41173338      64.53880630      85.86292505
Pt      90.02453130      62.57700630      87.25012713
Pt      91.41173338      64.53880630      88.63732922
Pt      87.25012713      90.04220630      90.02453130
Pt      88.63732922      88.08040630      88.63732922
Pt      87.25012713      86.11860630      90.02453130
Pt      90.02453130      86.11860630      90.02453130
Pt      88.63732922      88.08040630      91.41173338
Pt      88.63732922      84.15680630      88.63732922
Pt      87.25012713      82.19500630      90.02453130
Pt      90.02453130      82.19500630      90.02453130
Pt      88.63732922      84.15680630      91.41173338
Pt      88.63732922      80.23320630      88.63732922
Pt      87.25012713      78.27140630      90.02453130
Pt      90.02453130      78.27140630      90.02453130
Pt      88.63732922      80.23320630      91.41173338
Pt      88.63732922      76.30960630      88.63732922
Pt      87.25012713      74.34780630      90.02453130
Pt      90.02453130      74.34780630      90.02453130
Pt      88.63732922      76.30960630      91.41173338
Pt      88.63732922      72.38600630      88.63732922
Pt      87.25012713      70.42420630      90.02453130
Pt      90.02453130      70.42420630      90.02453130
Pt      88.63732922      72.38600630      91.41173338
Pt      88.63732922      68.46240630      88.63732922
Pt      87.25012713      66.50060630      90.02453130
Pt      90.02453130      66.50060630      90.02453130
Pt      88.63732922      68.46240630      91.41173338
Pt      88.63732922      64.53880630      88.63732922
Pt      87.25012713      62.57700630      90.02453130
Pt      88.63732922      64.53880630      91.41173338
Pt      85.86292505      88.08040630      91.41173338
Pt      84.47572297      86.11860630      92.79893547
Pt      87.25012713      86.11860630      92.79893547
Pt      85.86292505      84.15680630      91.41173338
Pt      84.47572297      82.19500630      92.79893547
Pt      87.25012713      82.19500630      92.79893547
Pt      85.86292505      84.15680630      94.18613755
Pt      85.86292505      80.23320630      91.41173338
Pt      84.47572297      78.27140630      92.79893547
Pt      87.25012713      78.27140630      92.79893547
Pt      85.86292505      80.23320630      94.18613755
Pt      85.86292505      76.30960630      91.41173338
Pt      84.47572297      74.34780630      92.79893547
Pt      87.25012713      74.34780630      92.79893547
Pt      85.86292505      76.30960630      94.18613755
Pt      85.86292505      72.38600630      91.41173338
Pt      84.47572297      70.42420630      92.79893547
Pt      87.25012713      70.42420630      92.79893547
Pt      85.86292505      72.38600630      94.18613755
Pt      85.86292505      68.46240630      91.41173338
Pt      84.47572297      66.50060630      92.79893547
Pt      87.25012713      66.50060630      92.79893547
Pt      85.86292505      68.46240630      94.18613755
Pt      85.86292505      64.53880630      91.41173338
Pt      83.08852088      84.15680630      94.18613755
Pt      81.70131880      82.19500630      95.57333963
Pt      84.47572297      82.19500630      95.57333963
Pt      83.08852088      80.23320630      94.18613755
Pt      81.70131880      78.27140630      95.57333963
Pt      84.47572297      78.27140630      95.57333963
Pt      83.08852088      80.23320630      96.96054172
Pt      83.08852088      76.30960630      94.18613755
Pt      81.70131880      74.34780630      95.57333963
Pt      84.47572297      74.34780630      95.57333963
Pt      83.08852088      76.30960630      96.96054172
Pt      83.08852088      72.38600630      94.18613755
Pt      81.70131880      70.42420630      95.57333963
Pt      84.47572297      70.42420630      95.57333963
Pt      83.08852088      72.38600630      96.96054172
Pt      83.08852088      68.46240630      94.18613755
Pt      80.31411672      80.23320630      96.96054172
Pt      78.92691463      78.27140630      98.34774380
Pt      81.70131880      78.27140630      98.34774380
Pt      80.31411672      76.30960630      96.96054172
Pt      78.92691463      74.34780630      98.34774380
Pt      81.70131880      74.34780630      98.34774380
Pt      80.31411672      72.38600630      96.96054172
Pt      98.34774380      78.27140630      84.47572297
Pt      98.34774380      74.34780630      84.47572297
Pt      95.57333963      82.19500630      87.25012713
Pt      96.96054172      80.23320630      85.86292505
Pt      95.57333963      78.27140630      87.25012713
Pt      96.96054172      76.30960630      85.86292505
Pt      95.57333963      74.34780630      87.25012713
Pt      96.96054172      76.30960630      88.63732922
Pt      96.96054172      72.38600630      85.86292505
Pt      95.57333963      70.42420630      87.25012713
Pt      92.79893547      86.11860630      90.02453130
Pt      94.18613755      84.15680630      88.63732922
Pt      92.79893547      82.19500630      90.02453130
Pt      94.18613755      80.23320630      88.63732922
Pt      92.79893547      78.27140630      90.02453130
Pt      95.57333963      78.27140630      90.02453130
Pt      94.18613755      80.23320630      91.41173338
Pt      94.18613755      76.30960630      88.63732922
Pt      92.79893547      74.34780630      90.02453130
Pt      95.57333963      74.34780630      90.02453130
Pt      94.18613755      76.30960630      91.41173338
Pt      94.18613755      72.38600630      88.63732922
Pt      92.79893547      70.42420630      90.02453130
Pt      94.18613755      72.38600630      91.41173338
Pt      94.18613755      68.46240630      88.63732922
Pt      92.79893547      66.50060630      90.02453130
Pt      90.02453130      86.11860630      92.79893547
Pt      91.41173338      84.15680630      91.41173338
Pt      90.02453130      82.19500630      92.79893547
Pt      92.79893547      82.19500630      92.79893547
Pt      91.41173338      80.23320630      91.41173338
Pt      90.02453130      78.27140630      92.79893547
Pt      92.79893547      78.27140630      92.79893547
Pt      91.41173338      80.23320630      94.18613755
Pt      91.41173338      76.30960630      91.41173338
Pt      90.02453130      74.34780630      92.79893547
Pt      92.79893547      74.34780630      92.79893547
Pt      91.41173338      76.30960630      94.18613755
Pt      91.41173338      72.38600630      91.41173338
Pt      90.02453130      70.42420630      92.79893547
Pt      92.79893547      70.42420630      92.79893547
Pt      91.41173338      72.38600630      94.18613755
Pt      91.41173338      68.46240630      91.41173338
Pt      90.02453130      66.50060630      92.79893547
Pt      88.63732922      84.15680630      94.18613755
Pt      87.25012713      82.19500630      95.57333963
Pt      88.63732922      80.23320630      94.18613755
Pt      87.25012713      78.27140630      95.57333963
Pt      90.02453130      78.27140630      95.57333963
Pt      88.63732922      76.30960630      94.18613755
Pt      87.25012713      74.34780630      95.57333963
Pt      90.02453130      74.34780630      95.57333963
Pt      88.63732922      76.30960630      96.96054172
Pt      88.63732922      72.38600630      94.18613755
Pt      87.25012713      70.42420630      95.57333963
Pt      88.63732922      68.46240630      94.18613755
Pt      85.86292505      80.23320630      96.96054172
Pt      84.47572297      78.27140630      98.34774380
Pt      85.86292505      76.30960630      96.96054172
Pt      84.47572297      74.34780630      98.34774380
Pt      85.86292505      72.38600630      96.96054172
C       97.31345871      77.29050630      90.37744829
O       98.14077364      77.29050630      91.20476323
C       97.31345871      75.32870630      90.37744829
O       98.14077364      75.32870630      91.20476323
C       95.92625663      79.25230630      91.76465038
O       96.75357156      79.25230630      92.59196531
C       95.92625663      77.29050630      91.76465038
O       96.75357156      77.29050630      92.59196531
C       94.53905454      81.21410630      93.15185246
O       95.36636948      81.21410630      93.97916739
C       94.53905454      79.25230630      93.15185246
O       95.36636948      79.25230630      93.97916739
C       95.92625663      75.32870630      91.76465038
O       96.75357156      75.32870630      92.59196531
C       95.92625663      73.36690630      91.76465038
O       96.75357156      73.36690630      92.59196531
C       94.53905454      77.29050630      93.15185246
O       95.36636948      77.29050630      93.97916739
C       94.53905454      75.32870630      93.15185246
O       95.36636948      75.32870630      93.97916739
C       94.53905454      73.36690630      93.15185246
O       95.36636948      73.36690630      93.97916739
C       94.53905454      71.40510630      93.15185246
O       95.36636948      71.40510630      93.97916739
C       93.15185246      81.21410630      94.53905454
O       93.97916739      81.21410630      95.36636948
C       93.15185246      79.25230630      94.53905454
O       93.97916739      79.25230630      95.36636948
C       93.15185246      77.29050630      94.53905454
O       93.97916739      77.29050630      95.36636948
C       91.76465038      79.25230630      95.92625663
O       92.59196531      79.25230630      96.75357156
C       93.15185246      75.32870630      94.53905454
O       93.97916739      75.32870630      95.36636948
C       93.15185246      73.36690630      94.53905454
O       93.97916739      73.36690630      95.36636948
C       91.76465038      77.29050630      95.92625663
O       92.59196531      77.29050630      96.75357156
C       91.76465038      75.32870630      95.92625663
O       92.59196531      75.32870630      96.75357156
C       93.15185246      71.40510630      94.53905454
O       93.97916739      71.40510630      95.36636948
C       91.76465038      73.36690630      95.92625663
O       92.59196531      73.36690630      96.75357156
C       90.37744829      77.29050630      97.31345871
O       91.20476323      77.29050630      98.14077364
C       90.37744829      75.32870630      97.31345871
O       91.20476323      75.32870630      98.14077364
C       71.99090422     103.29300630      70.60370213
O       71.99090422     104.46300630      70.60370213
C       70.60370213     103.29300630      71.99090422
O       70.60370213     104.46300630      71.99090422
C       74.76530838     103.29300630      70.60370213
O       74.76530838     104.46300630      70.60370213
C       73.37810630     103.29300630      71.99090422
O       73.37810630     104.46300630      71.99090422
C       77.53971255     103.29300630      70.60370213
O       77.53971255     104.46300630      70.60370213
C       76.15251047     103.29300630      71.99090422
O       76.15251047     104.46300630      71.99090422
C       71.99090422     103.29300630      73.37810630
O       71.99090422     104.46300630      73.37810630
C       70.60370213     103.29300630      74.76530838
O       70.60370213     104.46300630      74.76530838
C       74.76530838     103.29300630      73.37810630
O       74.76530838     104.46300630      73.37810630
C       73.37810630     103.29300630      74.76530838
O       73.37810630     104.46300630      74.76530838
C       71.99090422     103.29300630      76.15251047
O       71.99090422     104.46300630      76.15251047
C       70.60370213     103.29300630      77.53971255
O       70.60370213     104.46300630      77.53971255
C       78.92691463     103.29300630      71.99090422
O       78.92691463     104.46300630      71.99090422
C       77.53971255     103.29300630      73.37810630
O       77.53971255     104.46300630      73.37810630
C       76.15251047     103.29300630      74.76530838
O       76.15251047     104.46300630      74.76530838
C       78.92691463     103.29300630      74.76530838
O       78.92691463     104.46300630      74.76530838
C       74.76530838     103.29300630      76.15251047
O       74.76530838     104.46300630      76.15251047
C       73.37810630     103.29300630      77.53971255
O       73.37810630     104.46300630      77.53971255
C       77.53971255     103.29300630      76.15251047
O       77.53971255     104.46300630      76.15251047
C       76.15251047     103.29300630      77.53971255
O       76.15251047     104.46300630      77.53971255
C       71.99090422     103.29300630      78.92691463
O       71.99090422     104.46300630      78.92691463
C       74.76530838     103.29300630      78.92691463
O       74.76530838     104.46300630      78.92691463
C       78.92691463     103.29300630      77.53971255
O       78.92691463     104.46300630      77.53971255
C       77.53971255     103.29300630      78.92691463
O       77.53971255     104.46300630      78.92691463
C       59.15316847      77.29050630      52.21715805
O       58.32585354      77.29050630      51.38984312
C       59.15316847      75.32870630      52.21715805
O       58.32585354      75.32870630      51.38984312
C       57.76596639      79.25230630      53.60436014
O       56.93865145      79.25230630      52.77704520
C       57.76596639      77.29050630      53.60436014
O       56.93865145      77.29050630      52.77704520
C       56.37876430      81.21410630      54.99156222
O       55.55144937      81.21410630      54.16424729
C       56.37876430      79.25230630      54.99156222
O       55.55144937      79.25230630      54.16424729
C       57.76596639      75.32870630      53.60436014
O       56.93865145      75.32870630      52.77704520
C       57.76596639      73.36690630      53.60436014
O       56.93865145      73.36690630      52.77704520
C       56.37876430      77.29050630      54.99156222
O       55.55144937      77.29050630      54.16424729
C       56.37876430      75.32870630      54.99156222
O       55.55144937      75.32870630      54.16424729
C       56.37876430      73.36690630      54.99156222
O       55.55144937      73.36690630      54.16424729
C       56.37876430      71.40510630      54.99156222
O       55.55144937      71.40510630      54.16424729
C       54.99156222      81.21410630      56.37876430
O       54.16424729      81.21410630      55.55144937
C       54.99156222      79.25230630      56.37876430
O       54.16424729      79.25230630      55.55144937
C       54.99156222      77.29050630      56.37876430
O       54.16424729      77.29050630      55.55144937
C       53.60436014      79.25230630      57.76596639
O       52.77704520      79.25230630      56.93865145
C       54.99156222      75.32870630      56.37876430
O       54.16424729      75.32870630      55.55144937
C       54.99156222      73.36690630      56.37876430
O       54.16424729      73.36690630      55.55144937
C       53.60436014      77.29050630      57.76596639
O       52.77704520      77.29050630      56.93865145
C       53.60436014      75.32870630      57.76596639
O       52.77704520      75.32870630      56.93865145
C       54.99156222      71.40510630      56.37876430
O       54.16424729      71.40510630      55.55144937
C       53.60436014      73.36690630      57.76596639
O       52.77704520      73.36690630      56.93865145
C       52.21715805      77.29050630      59.15316847
O       51.38984312      77.29050630      58.32585354
C       52.21715805      75.32870630      59.15316847
O       51.38984312      75.32870630      58.32585354
C       52.21715805      77.29050630      90.37744829
O       51.38984312      77.29050630      91.20476323
C       52.21715805      75.32870630      90.37744829
O       51.38984312      75.32870630      91.20476323
C       53.60436014      79.25230630      91.76465038
O       52.77704520      79.25230630      92.59196531
C       53.60436014      77.29050630      91.76465038
O       52.77704520      77.29050630      92.59196531
C       54.99156222      81.21410630      93.15185246
O       54.16424729      81.21410630      93.97916739
C       54.99156222      79.25230630      93.15185246
O       54.16424729      79.25230630      93.97916739
C       53.60436014      75.32870630      91.76465038
O       52.77704520      75.32870630      92.59196531
C       53.60436014      73.36690630      91.76465038
O       52.77704520      73.36690630      92.59196531
C       54.99156222      77.29050630      93.15185246
O       54.16424729      77.29050630      93.97916739
C       54.99156222      75.32870630      93.15185246
O       54.16424729      75.32870630      93.97916739
C       54.99156222      73.36690630      93.15185246
O       54.16424729      73.36690630      93.97916739
C       54.99156222      71.40510630      93.15185246
O       54.16424729      71.40510630      93.97916739
C       56.37876430      81.21410630      94.53905454
O       55.55144937      81.21410630      95.36636948
C       56.37876430      79.25230630      94.53905454
O       55.55144937      79.25230630      95.36636948
C       56.37876430      77.29050630      94.53905454
O       55.55144937      77.29050630      95.36636948
C       57.76596639      79.25230630      95.92625663
O       56.93865145      79.25230630      96.75357156
C       56.37876430      75.32870630      94.53905454
O       55.55144937      75.32870630      95.36636948
C       56.37876430      73.36690630      94.53905454
O       55.55144937      73.36690630      95.36636948
C       57.76596639      77.29050630      95.92625663
O       56.93865145      77.29050630      96.75357156
C       57.76596639      75.32870630      95.92625663
O       56.93865145      75.32870630      96.75357156
C       56.37876430      71.40510630      94.53905454
O       55.55144937      71.40510630      95.36636948
C       57.76596639      73.36690630      95.92625663
O       56.93865145      73.36690630      96.75357156
C       59.15316847      77.29050630      97.31345871
O       58.32585354      77.29050630      98.14077364
C       59.15316847      75.32870630      97.31345871
O       58.32585354      75.32870630      98.14077364
C       90.37744829      77.29050630      52.21715805
O       91.20476323      77.29050630      51.38984312
C       90.37744829      75.32870630      52.21715805
O       91.20476323      75.32870630      51.38984312
C       91.76465038      79.25230630      53.60436014
O       92.59196531      79.25230630      52.77704520
C       91.76465038      77.29050630      53.60436014
O       92.59196531      77.29050630      52.77704520
C       93.15185246      81.21410630      54.99156222
O       93.97916739      81.21410630      54.16424729
C       93.15185246      79.25230630      54.99156222
O       93.97916739      79.25230630      54.16424729
C       91.76465038      75.32870630      53.60436014
O       92.59196531      75.32870630      52.77704520
C       91.76465038      73.36690630      53.60436014
O       92.59196531      73.36690630      52.77704520
C       93.15185246      77.29050630      54.99156222
O       93.97916739      77.29050630      54.16424729
C       93.15185246      75.32870630      54.99156222
O       93.97916739      75.32870630      54.16424729
C       93.15185246      73.36690630      54.99156222
O       93.97916739      73.36690630      54.16424729
C       93.15185246      71.40510630      54.99156222
O       93.97916739      71.40510630      54.16424729
C       94.53905454      81.21410630      56.37876430
O       95.36636948      81.21410630      55.55144937
C       94.53905454      79.25230630      56.37876430
O       95.36636948      79.25230630      55.55144937
C       94.53905454      77.29050630      56.37876430
O       95.36636948      77.29050630      55.55144937
C       95.92625663      79.25230630      57.76596639
O       96.75357156      79.25230630      56.93865145
C       94.53905454      75.32870630      56.37876430
O       95.36636948      75.32870630      55.55144937
C       94.53905454      73.36690630      56.37876430
O       95.36636948      73.36690630      55.55144937
C       95.92625663      77.29050630      57.76596639
O       96.75357156      77.29050630      56.93865145
C       95.92625663      75.32870630      57.76596639
O       96.75357156      75.32870630      56.93865145
C       94.53905454      71.40510630      56.37876430
O       95.36636948      71.40510630      55.55144937
C       95.92625663      73.36690630      57.76596639
O       96.75357156      73.36690630      56.93865145
C       97.31345871      77.29050630      59.15316847
O       98.14077364      77.29050630      58.32585354
C       97.31345871      75.32870630      59.15316847
O       98.14077364      75.32870630      58.32585354
C       71.99090422      49.32620630      70.60370213
O       71.99090422      48.15620630      70.60370213
C       70.60370213      49.32620630      71.99090422
O       70.60370213      48.15620630      71.99090422
C       74.76530838      49.32620630      70.60370213
O       74.76530838      48.15620630      70.60370213
C       73.37810630      49.32620630      71.99090422
O       73.37810630      48.15620630      71.99090422
C       77.53971255      49.32620630      70.60370213
O       77.53971255      48.15620630      70.60370213
C       76.15251047      49.32620630      71.99090422
O       76.15251047      48.15620630      71.99090422
C       71.99090422      49.32620630      73.37810630
O       71.99090422      48.15620630      73.37810630
C       70.60370213      49.32620630      74.76530838
O       70.60370213      48.15620630      74.76530838
C       74.76530838      49.32620630      73.37810630
O       74.76530838      48.15620630      73.37810630
C       73.37810630      49.32620630      74.76530838
O       73.37810630      48.15620630      74.76530838
C       71.99090422      49.32620630      76.15251047
O       71.99090422      48.15620630      76.15251047
C       70.60370213      49.32620630      77.53971255
O       70.60370213      48.15620630      77.53971255
C       78.92691463      49.32620630      71.99090422
O       78.92691463      48.15620630      71.99090422
C       77.53971255      49.32620630      73.37810630
O       77.53971255      48.15620630      73.37810630
C       76.15251047      49.32620630      74.76530838
O       76.15251047      48.15620630      74.76530838
C       78.92691463      49.32620630      74.76530838
O       78.92691463      48.15620630      74.76530838
C       74.76530838      49.32620630      76.15251047
O       74.76530838      48.15620630      76.15251047
C       73.37810630      49.32620630      77.53971255
O       73.37810630      48.15620630      77.53971255
C       77.53971255      49.32620630      76.15251047
O       77.53971255      48.15620630      76.15251047
C       76.15251047      49.32620630      77.53971255
O       76.15251047      48.15620630      77.53971255
C       71.99090422      49.32620630      78.92691463
O       71.99090422      48.15620630      78.92691463
C       74.76530838      49.32620630      78.92691463
O       74.76530838      48.15620630      78.92691463
C       78.92691463      49.32620630      77.53971255
O       78.92691463      48.15620630      77.53971255
C       77.53971255      49.32620630      78.92691463
O       77.53971255      48.15620630      78.92691463
C       58.56891880      91.36756011      61.34332297
O       57.99275213      92.18238282      60.76715630
C       57.18171672      89.40576011      59.95612088
O       56.60555005      90.22058282      59.37995422
C       65.50492922      97.25296011      62.73052505
O       64.92876255      98.06778282      62.15435838
C       68.27933338     101.17656011      65.50492922
O       67.70316672     101.99138282      64.92876255
C       65.50492922     101.17656011      68.27933338
O       64.92876255     101.99138282      67.70316672
C       66.89213130      99.21476011      64.11772713
O       66.31596463     100.02958282      63.54156047
C       62.73052505      97.25296011      65.50492922
O       62.15435838      98.06778282      64.92876255
C       64.11772713      99.21476011      66.89213130
O       63.54156047     100.02958282      66.31596463
C       62.73052505      93.32936011      59.95612088
O       62.15435838      94.14418282      59.37995422
C       58.56891880      87.44396011      55.79451463
O       57.99275213      88.25878282      55.21834797
C       59.95612088      89.40576011      57.18171672
O       59.37995422      90.22058282      56.60555005
C       61.34332297      91.36756011      58.56891880
O       60.76715630      92.18238282      57.99275213
C       61.34332297      95.29116011      64.11772713
O       60.76715630      96.10598282      63.54156047
C       64.11772713      95.29116011      61.34332297
O       63.54156047      96.10598282      60.76715630
C       59.95612088      93.32936011      62.73052505
O       59.37995422      94.14418282      62.15435838
C       55.79451463      87.44396011      58.56891880
O       55.21834797      88.25878282      57.99275213
C       84.47572297      78.27140630     100.22207713
O       84.47572297      78.27140630     101.37441047
C       67.82929797      74.34780630     100.22207713
O       67.82929797      74.34780630     101.37441047
C       70.60370213      74.34780630     100.22207713
O       70.60370213      74.34780630     101.37441047
C       78.92691463      74.34780630     100.22207713
O       78.92691463      74.34780630     101.37441047
C       76.15251047      74.34780630     100.22207713
O       76.15251047      74.34780630     101.37441047
C       78.92691463      78.27140630     100.22207713
O       78.92691463      78.27140630     101.37441047
C       65.05489380      78.27140630     100.22207713
O       65.05489380      78.27140630     101.37441047
C       65.05489380      74.34780630     100.22207713
O       65.05489380      74.34780630     101.37441047
C       84.47572297      74.34780630     100.22207713
O       84.47572297      74.34780630     101.37441047
C       81.70131880      78.27140630     100.22207713
O       81.70131880      78.27140630     101.37441047
C       73.37810630      74.34780630     100.22207713
O       73.37810630      74.34780630     101.37441047
C       67.82929797      78.27140630     100.22207713
O       67.82929797      78.27140630     101.37441047
C       73.37810630      78.27140630     100.22207713
O       73.37810630      78.27140630     101.37441047
C       76.15251047      78.27140630     100.22207713
O       76.15251047      78.27140630     101.37441047
C       81.70131880      74.34780630     100.22207713
O       81.70131880      74.34780630     101.37441047
C       70.60370213      78.27140630     100.22207713
O       70.60370213      78.27140630     101.37441047
C       86.80009172      97.25296011      65.50492922
O       87.37625838      98.06778282      64.92876255
C       82.63848547      99.21476011      64.11772713
O       83.21465213     100.02958282      63.54156047
C       85.41288963      95.29116011      61.34332297
O       85.98905630      96.10598282      60.76715630
C       85.41288963      99.21476011      66.89213130
O       85.98905630     100.02958282      66.31596463
C       90.96169797      87.44396011      55.79451463
O       91.53786463      88.25878282      55.21834797
C       90.96169797      91.36756011      61.34332297
O       91.53786463      92.18238282      60.76715630
C       92.34890005      89.40576011      59.95612088
O       92.92506672      90.22058282      59.37995422
C       88.18729380      95.29116011      64.11772713
O       88.76346047      96.10598282      63.54156047
C       89.57449588      89.40576011      57.18171672
O       90.15066255      90.22058282      56.60555005
C       84.02568755      97.25296011      62.73052505
O       84.60185422      98.06778282      62.15435838
C       89.57449588      93.32936011      62.73052505
O       90.15066255      94.14418282      62.15435838
C       81.25128338     101.17656011      65.50492922
O       81.82745005     101.99138282      64.92876255
C       93.73610213      87.44396011      58.56891880
O       94.31226880      88.25878282      57.99275213
C       86.80009172      93.32936011      59.95612088
O       87.37625838      94.14418282      59.37995422
C       88.18729380      91.36756011      58.56891880
O       88.76346047      92.18238282      57.99275213
C       84.02568755     101.17656011      68.27933338
O       84.60185422     101.99138282      67.70316672
C       85.41288963      99.21476011      82.63848547
O       85.98905630     100.02958282      83.21465213
C       90.96169797      91.36756011      88.18729380
O       91.53786463      92.18238282      88.76346047
C       89.57449588      93.32936011      86.80009172
O       90.15066255      94.14418282      87.37625838
C       81.25128338     101.17656011      84.02568755
O       81.82745005     101.99138282      84.60185422
C       88.18729380      95.29116011      85.41288963
O       88.76346047      96.10598282      85.98905630
C       88.18729380      91.36756011      90.96169797
O       88.76346047      92.18238282      91.53786463
C       90.96169797      87.44396011      93.73610213
O       91.53786463      88.25878282      94.31226880
C       82.63848547      99.21476011      85.41288963
O       83.21465213     100.02958282      85.98905630
C       84.02568755      97.25296011      86.80009172
O       84.60185422      98.06778282      87.37625838
C       85.41288963      95.29116011      88.18729380
O       85.98905630      96.10598282      88.76346047
C       92.34890005      89.40576011      89.57449588
O       92.92506672      90.22058282      90.15066255
C       84.02568755     101.17656011      81.25128338
O       84.60185422     101.99138282      81.82745005
C       86.80009172      97.25296011      84.02568755
O       87.37625838      98.06778282      84.60185422
C       86.80009172      93.32936011      89.57449588
O       87.37625838      94.14418282      90.15066255
C       93.73610213      87.44396011      90.96169797
O       94.31226880      88.25878282      91.53786463
C       89.57449588      89.40576011      92.34890005
O       90.15066255      90.22058282      92.92506672
C       67.82929797      74.34780630      49.30853963
O       67.82929797      74.34780630      48.15620630
C       84.47572297      78.27140630      49.30853963
O       84.47572297      78.27140630      48.15620630
C       81.70131880      78.27140630      49.30853963
O       81.70131880      78.27140630      48.15620630
C       76.15251047      78.27140630      49.30853963
O       76.15251047      78.27140630      48.15620630
C       67.82929797      78.27140630      49.30853963
O       67.82929797      78.27140630      48.15620630
C       73.37810630      74.34780630      49.30853963
O       73.37810630      74.34780630      48.15620630
C       81.70131880      74.34780630      49.30853963
O       81.70131880      74.34780630      48.15620630
C       76.15251047      74.34780630      49.30853963
O       76.15251047      74.34780630      48.15620630
C       73.37810630      78.27140630      49.30853963
O       73.37810630      78.27140630      48.15620630
C       78.92691463      78.27140630      49.30853963
O       78.92691463      78.27140630      48.15620630
C       70.60370213      74.34780630      49.30853963
O       70.60370213      74.34780630      48.15620630
C       78.92691463      74.34780630      49.30853963
O       78.92691463      74.34780630      48.15620630
C       70.60370213      78.27140630      49.30853963
O       70.60370213      78.27140630      48.15620630
C       84.47572297      74.34780630      49.30853963
O       84.47572297      74.34780630      48.15620630
C       65.05489380      74.34780630      49.30853963
O       65.05489380      74.34780630      48.15620630
C       65.05489380      78.27140630      49.30853963
O       65.05489380      78.27140630      48.15620630
C      100.22207713      74.34780630      70.60370213
O      101.37441047      74.34780630      70.60370213
C      100.22207713      74.34780630      73.37810630
O      101.37441047      74.34780630      73.37810630
C      100.22207713      74.34780630      84.47572297
O      101.37441047      74.34780630      84.47572297
C      100.22207713      78.27140630      65.05489380
O      101.37441047      78.27140630      65.05489380
C      100.22207713      78.27140630      81.70131880
O      101.37441047      78.27140630      81.70131880
C      100.22207713      78.27140630      84.47572297
O      101.37441047      78.27140630      84.47572297
C      100.22207713      74.34780630      81.70131880
O      101.37441047      74.34780630      81.70131880
C      100.22207713      78.27140630      78.92691463
O      101.37441047      78.27140630      78.92691463
C      100.22207713      74.34780630      78.92691463
O      101.37441047      74.34780630      78.92691463
C      100.22207713      78.27140630      70.60370213
O      101.37441047      78.27140630      70.60370213
C      100.22207713      78.27140630      76.15251047
O      101.37441047      78.27140630      76.15251047
C      100.22207713      78.27140630      73.37810630
O      101.37441047      78.27140630      73.37810630
C      100.22207713      74.34780630      65.05489380
O      101.37441047      74.34780630      65.05489380
C      100.22207713      74.34780630      67.82929797
O      101.37441047      74.34780630      67.82929797
C      100.22207713      78.27140630      67.82929797
O      101.37441047      78.27140630      67.82929797
C      100.22207713      74.34780630      76.15251047
O      101.37441047      74.34780630      76.15251047
C       62.73052505      93.32936011      89.57449588
O       62.15435838      94.14418282      90.15066255
C       65.50492922      97.25296011      86.80009172
O       64.92876255      98.06778282      87.37625838
C       66.89213130      99.21476011      85.41288963
O       66.31596463     100.02958282      85.98905630
C       61.34332297      95.29116011      85.41288963
O       60.76715630      96.10598282      85.98905630
C       61.34332297      91.36756011      90.96169797
O       60.76715630      92.18238282      91.53786463
C       57.18171672      89.40576011      89.57449588
O       56.60555005      90.22058282      90.15066255
C       58.56891880      87.44396011      93.73610213
O       57.99275213      88.25878282      94.31226880
C       59.95612088      89.40576011      92.34890005
O       59.37995422      90.22058282      92.92506672
C       59.95612088      93.32936011      86.80009172
O       59.37995422      94.14418282      87.37625838
C       62.73052505      97.25296011      84.02568755
O       62.15435838      98.06778282      84.60185422
C       65.50492922     101.17656011      81.25128338
O       64.92876255     101.99138282      81.82745005
C       64.11772713      95.29116011      88.18729380
O       63.54156047      96.10598282      88.76346047
C       64.11772713      99.21476011      82.63848547
O       63.54156047     100.02958282      83.21465213
C       55.79451463      87.44396011      90.96169797
O       55.21834797      88.25878282      91.53786463
C       58.56891880      91.36756011      88.18729380
O       57.99275213      92.18238282      88.76346047
C       68.27933338     101.17656011      84.02568755
O       67.70316672     101.99138282      84.60185422
C       59.95612088      59.28985249      62.73052505
O       59.37995422      58.47502977      62.15435838
C       61.34332297      57.32805249      64.11772713
O       60.76715630      56.51322977      63.54156047
C       58.56891880      61.25165249      61.34332297
O       57.99275213      60.43682977      60.76715630
C       64.11772713      53.40445249      66.89213130
O       63.54156047      52.58962977      66.31596463
C       68.27933338      51.44265249      65.50492922
O       67.70316672      50.62782977      64.92876255
C       58.56891880      65.17525249      55.79451463
O       57.99275213      64.36042977      55.21834797
C       66.89213130      53.40445249      64.11772713
O       66.31596463      52.58962977      63.54156047
C       62.73052505      59.28985249      59.95612088
O       62.15435838      58.47502977      59.37995422
C       61.34332297      61.25165249      58.56891880
O       60.76715630      60.43682977      57.99275213
C       64.11772713      57.32805249      61.34332297
O       63.54156047      56.51322977      60.76715630
C       65.50492922      55.36625249      62.73052505
O       64.92876255      54.55142977      62.15435838
C       62.73052505      55.36625249      65.50492922
O       62.15435838      54.55142977      64.92876255
C       57.18171672      63.21345249      59.95612088
O       56.60555005      62.39862977      59.37995422
C       65.50492922      51.44265249      68.27933338
O       64.92876255      50.62782977      67.70316672
C       55.79451463      65.17525249      58.56891880
O       55.21834797      64.36042977      57.99275213
C       59.95612088      63.21345249      57.18171672
O       59.37995422      62.39862977      56.60555005
C       89.57449588      59.28985249      62.73052505
O       90.15066255      58.47502977      62.15435838
C       85.41288963      53.40445249      66.89213130
O       85.98905630      52.58962977      66.31596463
C       82.63848547      53.40445249      64.11772713
O       83.21465213      52.58962977      63.54156047
C       86.80009172      59.28985249      59.95612088
O       87.37625838      58.47502977      59.37995422
C       93.73610213      65.17525249      58.56891880
O       94.31226880      64.36042977      57.99275213
C       84.02568755      55.36625249      62.73052505
O       84.60185422      54.55142977      62.15435838
C       86.80009172      55.36625249      65.50492922
O       87.37625838      54.55142977      64.92876255
C       89.57449588      63.21345249      57.18171672
O       90.15066255      62.39862977      56.60555005
C       88.18729380      57.32805249      64.11772713
O       88.76346047      56.51322977      63.54156047
C       90.96169797      65.17525249      55.79451463
O       91.53786463      64.36042977      55.21834797
C       81.25128338      51.44265249      65.50492922
O       81.82745005      50.62782977      64.92876255
C       84.02568755      51.44265249      68.27933338
O       84.60185422      50.62782977      67.70316672
C       88.18729380      61.25165249      58.56891880
O       88.76346047      60.43682977      57.99275213
C       85.41288963      57.32805249      61.34332297
O       85.98905630      56.51322977      60.76715630
C       90.96169797      61.25165249      61.34332297
O       91.53786463      60.43682977      60.76715630
C       92.34890005      63.21345249      59.95612088
O       92.92506672      62.39862977      59.37995422
C       49.30853963      74.34780630      70.60370213
O       48.15620630      74.34780630      70.60370213
C       49.30853963      74.34780630      65.05489380
O       48.15620630      74.34780630      65.05489380
C       49.30853963      74.34780630      84.47572297
O       48.15620630      74.34780630      84.47572297
C       49.30853963      78.27140630      76.15251047
O       48.15620630      78.27140630      76.15251047
C       49.30853963      78.27140630      81.70131880
O       48.15620630      78.27140630      81.70131880
C       49.30853963      78.27140630      78.92691463
O       48.15620630      78.27140630      78.92691463
C       49.30853963      74.34780630      81.70131880
O       48.15620630      74.34780630      81.70131880
C       49.30853963      78.27140630      65.05489380
O       48.15620630      78.27140630      65.05489380
C       49.30853963      74.34780630      76.15251047
O       48.15620630      74.34780630      76.15251047
C       49.30853963      74.34780630      73.37810630
O       48.15620630      74.34780630      73.37810630
C       49.30853963      74.34780630      78.92691463
O       48.15620630      74.34780630      78.92691463
C       49.30853963      78.27140630      73.37810630
O       48.15620630      78.27140630      73.37810630
C       49.30853963      74.34780630      67.82929797
O       48.15620630      74.34780630      67.82929797
C       49.30853963      78.27140630      84.47572297
O       48.15620630      78.27140630      84.47572297
C       49.30853963      78.27140630      67.82929797
O       48.15620630      78.27140630      67.82929797
C       49.30853963      78.27140630      70.60370213
O       48.15620630      78.27140630      70.60370213
C       88.18729380      61.25165249      90.96169797
O       88.76346047      60.43682977      91.53786463
C       90.96169797      61.25165249      88.18729380
O       91.53786463      60.43682977      88.76346047
C       86.80009172      55.36625249      84.02568755
O       87.37625838      54.55142977      84.60185422
C       84.02568755      55.36625249      86.80009172
O       84.60185422      54.55142977      87.37625838
C       84.02568755      51.44265249      81.25128338
O       84.60185422      50.62782977      81.82745005
C       82.63848547      53.40445249      85.41288963
O       83.21465213      52.58962977      85.98905630
C       85.41288963      53.40445249      82.63848547
O       85.98905630      52.58962977      83.21465213
C       92.34890005      63.21345249      89.57449588
O       92.92506672      62.39862977      90.15066255
C       93.73610213      65.17525249      90.96169797
O       94.31226880      64.36042977      91.53786463
C       90.96169797      65.17525249      93.73610213
O       91.53786463      64.36042977      94.31226880
C       89.57449588      63.21345249      92.34890005
O       90.15066255      62.39862977      92.92506672
C       81.25128338      51.44265249      84.02568755
O       81.82745005      50.62782977      84.60185422
C       89.57449588      59.28985249      86.80009172
O       90.15066255      58.47502977      87.37625838
C       88.18729380      57.32805249      85.41288963
O       88.76346047      56.51322977      85.98905630
C       85.41288963      57.32805249      88.18729380
O       85.98905630      56.51322977      88.76346047
C       86.80009172      59.28985249      89.57449588
O       87.37625838      58.47502977      90.15066255
C       55.79451463      65.17525249      90.96169797
O       55.21834797      64.36042977      91.53786463
C       65.50492922      55.36625249      86.80009172
O       64.92876255      54.55142977      87.37625838
C       59.95612088      63.21345249      92.34890005
O       59.37995422      62.39862977      92.92506672
C       61.34332297      57.32805249      85.41288963
O       60.76715630      56.51322977      85.98905630
C       61.34332297      61.25165249      90.96169797
O       60.76715630      60.43682977      91.53786463
C       64.11772713      53.40445249      82.63848547
O       63.54156047      52.58962977      83.21465213
C       65.50492922      51.44265249      81.25128338
O       64.92876255      50.62782977      81.82745005
C       64.11772713      57.32805249      88.18729380
O       63.54156047      56.51322977      88.76346047
C       68.27933338      51.44265249      84.02568755
O       67.70316672      50.62782977      84.60185422
C       62.73052505      55.36625249      84.02568755
O       62.15435838      54.55142977      84.60185422
C       58.56891880      65.17525249      93.73610213
O       57.99275213      64.36042977      94.31226880
C       66.89213130      53.40445249      85.41288963
O       66.31596463      52.58962977      85.98905630
C       57.18171672      63.21345249      89.57449588
O       56.60555005      62.39862977      90.15066255
C       62.73052505      59.28985249      89.57449588
O       62.15435838      58.47502977      90.15066255
C       59.95612088      59.28985249      86.80009172
O       59.37995422      58.47502977      87.37625838
C       58.56891880      61.25165249      88.18729380
O       57.99275213      60.43682977      88.76346047
C       60.89329859      85.23895836      53.81409614
O       60.89330538      85.90426152      52.87322217
C       73.37811734      98.97155836      63.52451072
O       73.37812413      99.63686152      62.58363676
C       83.08853192      89.16255836      56.58850030
O       83.08853871      89.82786152      55.64762634
C       78.92692567      91.12435836      57.97570239
O       78.92693246      91.78966152      57.03482842
C       76.15252151      95.04795836      60.75010655
O       76.15252829      95.71326152      59.80923259
C       80.31412776      85.23895836      53.81409614
O       80.31413454      85.90426152      52.87322217
C       74.76531942      81.31535836      51.03969197
O       74.76532621      81.98066152      50.09881801
C       77.53972359      85.23895836      53.81409614
O       77.53973038      85.90426152      52.87322217
C       85.86293609      89.16255836      56.58850030
O       85.86294288      89.82786152      55.64762634
C       66.44210692      85.23895836      53.81409614
O       66.44211371      85.90426152      52.87322217
C       63.66770276      89.16255836      56.58850030
O       63.66770954      89.82786152      55.64762634
C       69.21651109      81.31535836      51.03969197
O       69.21651788      81.98066152      50.09881801
C       71.99091526      97.00975836      62.13730864
O       71.99092204      97.67506152      61.19643467
C       80.31412776      89.16255836      56.58850030
O       80.31413454      89.82786152      55.64762634
C       66.44210692      81.31535836      51.03969197
O       66.44211371      81.98066152      50.09881801
C       78.92692567      95.04795836      60.75010655
O       78.92693246      95.71326152      59.80923259
C       81.70132984      95.04795836      60.75010655
O       81.70133663      95.71326152      59.80923259
C       78.92692567      83.27715836      52.42689405
O       78.92693246      83.94246152      51.48602009
C       74.76531942      97.00975836      62.13730864
O       74.76532621      97.67506152      61.19643467
C       70.60371317      83.27715836      52.42689405
O       70.60371996      83.94246152      51.48602009
C       83.08853192      93.08615836      59.36290447
O       83.08853871      93.75146152      58.42203051
C       78.92692567      98.97155836      63.52451072
O       78.92693246      99.63686152      62.58363676
C       73.37811734      83.27715836      52.42689405
O       73.37812413      83.94246152      51.48602009
C       83.08853192      81.31535836      51.03969197
O       83.08853871      81.98066152      50.09881801
C       74.76531942      85.23895836      53.81409614
O       74.76532621      85.90426152      52.87322217
C       76.15252151      98.97155836      63.52451072
O       76.15252829      99.63686152      62.58363676
C       77.53972359      81.31535836      51.03969197
O       77.53973038      81.98066152      50.09881801
C       74.76531942     100.93335836      64.91171280
O       74.76532621     101.59866152      63.97083884
C       74.76531942      93.08615836      59.36290447
O       74.76532621      93.75146152      58.42203051
C       70.60371317      98.97155836      63.52451072
O       70.60371996      99.63686152      62.58363676
C       65.05490484      87.20075836      55.20129822
O       65.05491163      87.86606152      54.26042426
C       71.99091526      93.08615836      59.36290447
O       71.99092204      93.75146152      58.42203051
C       71.99091526      85.23895836      53.81409614
O       71.99092204      85.90426152      52.87322217
C       87.25013817      83.27715836      52.42689405
O       87.25014496      83.94246152      51.48602009
C       76.15252151      87.20075836      55.20129822
O       76.15252829      87.86606152      54.26042426
C       88.63734026      85.23895836      53.81409614
O       88.63734704      85.90426152      52.87322217
C       87.25013817      87.20075836      55.20129822
O       87.25014496      87.86606152      54.26042426
C       85.86293609      81.31535836      51.03969197
O       85.86294288      81.98066152      50.09881801
C       74.76531942      89.16255836      56.58850030
O       74.76532621      89.82786152      55.64762634
C       71.99091526      81.31535836      51.03969197
O       71.99092204      81.98066152      50.09881801
C       67.82930901      83.27715836      52.42689405
O       67.82931579      83.94246152      51.48602009
C       76.15252151      91.12435836      57.97570239
O       76.15252829      91.78966152      57.03482842
C       85.86293609      85.23895836      53.81409614
O       85.86294288      85.90426152      52.87322217
C       67.82930901      95.04795836      60.75010655
O       67.82931579      95.71326152      59.80923259
C       69.21651109      97.00975836      62.13730864
O       69.21651788      97.67506152      61.19643467
C       73.37811734      87.20075836      55.20129822
O       73.37812413      87.86606152      54.26042426
C       84.47573401      87.20075836      55.20129822
O       84.47574079      87.86606152      54.26042426
C       77.53972359      89.16255836      56.58850030
O       77.53973038      89.82786152      55.64762634
C       63.66770276      85.23895836      53.81409614
O       63.66770954      85.90426152      52.87322217
C       81.70132984      83.27715836      52.42689405
O       81.70133663      83.94246152      51.48602009
C       62.28050067      87.20075836      55.20129822
O       62.28050746      87.86606152      54.26042426
C       65.05490484      91.12435836      57.97570239
O       65.05491163      91.78966152      57.03482842
C       65.05490484      83.27715836      52.42689405
O       65.05491163      83.94246152      51.48602009
C       77.53972359      93.08615836      59.36290447
O       77.53973038      93.75146152      58.42203051
C       67.82930901      91.12435836      57.97570239
O       67.82931579      91.78966152      57.03482842
C       71.99091526     100.93335836      64.91171280
O       71.99092204     101.59866152      63.97083884
C       69.21651109      85.23895836      53.81409614
O       69.21651788      85.90426152      52.87322217
C       78.92692567      87.20075836      55.20129822
O       78.92693246      87.86606152      54.26042426
C       63.66770276      81.31535836      51.03969197
O       63.66770954      81.98066152      50.09881801
C       70.60371317      91.12435836      57.97570239
O       70.60371996      91.78966152      57.03482842
C       81.70132984      91.12435836      57.97570239
O       81.70133663      91.78966152      57.03482842
C       76.15252151      83.27715836      52.42689405
O       76.15252829      83.94246152      51.48602009
C       67.82930901      87.20075836      55.20129822
O       67.82931579      87.86606152      54.26042426
C       77.53972359      97.00975836      62.13730864
O       77.53973038      97.67506152      61.19643467
C       71.99091526      89.16255836      56.58850030
O       71.99092204      89.82786152      55.64762634
C       81.70132984      87.20075836      55.20129822
O       81.70133663      87.86606152      54.26042426
C       84.47573401      91.12435836      57.97570239
O       84.47574079      91.78966152      57.03482842
C       83.08853192      85.23895836      53.81409614
O       83.08853871      85.90426152      52.87322217
C       66.44210692      89.16255836      56.58850030
O       66.44211371      89.82786152      55.64762634
C       73.37811734      95.04795836      60.75010655
O       73.37812413      95.71326152      59.80923259
C       73.37811734      91.12435836      57.97570239
O       73.37812413      91.78966152      57.03482842
C       66.44210692      93.08615836      59.36290447
O       66.44211371      93.75146152      58.42203051
C       80.31412776      93.08615836      59.36290447
O       80.31413454      93.75146152      58.42203051
C       69.21651109      89.16255836      56.58850030
O       69.21651788      89.82786152      55.64762634
C       69.21651109      93.08615836      59.36290447
O       69.21651788      93.75146152      58.42203051
C       80.31412776      97.00975836      62.13730864
O       80.31413454      97.67506152      61.19643467
C       84.47573401      83.27715836      52.42689405
O       84.47574079      83.94246152      51.48602009
C       77.53972359     100.93335836      64.91171280
O       77.53973038     101.59866152      63.97083884
C       80.31412776      81.31535836      51.03969197
O       80.31413454      81.98066152      50.09881801
C       70.60371317      95.04795836      60.75010655
O       70.60371996      95.71326152      59.80923259
C       70.60371317      87.20075836      55.20129822
O       70.60371996      87.86606152      54.26042426
C       62.28050067      83.27715836      52.42689405
O       62.28050746      83.94246152      51.48602009
C       90.16771229      93.08615836      66.44208484
O       91.10858626      93.75146152      66.44207805
C       94.32931854      87.20075836      81.70130776
O       95.27019251      87.86606152      81.70130097
C       92.94211646      89.16255836      80.31410568
O       93.88299042      89.82786152      80.31409889
C       98.49092479      81.31535836      71.99089318
O       99.43179876      81.98066152      71.99088639
C       87.39330813      97.00975836      77.53970151
O       88.33418209      97.67506152      77.53969472
C       98.49092479      81.31535836      83.08850984
O       99.43179876      81.98066152      83.08850305
C       90.16771229      93.08615836      80.31410568
O       91.10858626      93.75146152      80.31409889
C       94.32931854      87.20075836      78.92690359
O       95.27019251      87.86606152      78.92689680
C       97.10372271      83.27715836      76.15249943
O       98.04459667      83.94246152      76.15249264
C       87.39330813      97.00975836      80.31410568
O       88.33418209      97.67506152      80.31409889
C       98.49092479      81.31535836      80.31410568
O       99.43179876      81.98066152      80.31409889
C       97.10372271      83.27715836      81.70130776
O       98.04459667      83.94246152      81.70130097
C       91.55491438      91.12435836      78.92690359
O       92.49578834      91.78966152      78.92689680
C       87.39330813      97.00975836      74.76529734
O       88.33418209      97.67506152      74.76529055
C       95.71652063      85.23895836      63.66768068
O       96.65739459      85.90426152      63.66767389
C       92.94211646      89.16255836      85.86291401
O       93.88299042      89.82786152      85.86290722
C       86.00610604      98.97155836      76.15249943
O       86.94698001      99.63686152      76.15249264
C       84.61890396     100.93335836      71.99089318
O       85.55977792     101.59866152      71.99088639
C       97.10372271      83.27715836      84.47571193
O       98.04459667      83.94246152      84.47570514
C       86.00610604      98.97155836      73.37809526
O       86.94698001      99.63686152      73.37808847
C       94.32931854      87.20075836      65.05488276
O       95.27019251      87.86606152      65.05487597
C       95.71652063      85.23895836      80.31410568
O       96.65739459      85.90426152      80.31409889
C       91.55491438      91.12435836      76.15249943
O       92.49578834      91.78966152      76.15249264
C       92.94211646      89.16255836      74.76529734
O       93.88299042      89.82786152      74.76529055
C       97.10372271      83.27715836      65.05488276
O       98.04459667      83.94246152      65.05487597
C       90.16771229      93.08615836      69.21648901
O       91.10858626      93.75146152      69.21648222
C       94.32931854      87.20075836      67.82928693
O       95.27019251      87.86606152      67.82928014
C       94.32931854      87.20075836      62.28047859
O       95.27019251      87.86606152      62.28047180
C       98.49092479      81.31535836      66.44208484
O       99.43179876      81.98066152      66.44207805
C       92.94211646      89.16255836      63.66768068
O       93.88299042      89.82786152      63.66767389
C       87.39330813      97.00975836      71.99089318
O       88.33418209      97.67506152      71.99088639
C       95.71652063      85.23895836      71.99089318
O       96.65739459      85.90426152      71.99088639
C       95.71652063      85.23895836      74.76529734
O       96.65739459      85.90426152      74.76529055
C       98.49092479      81.31535836      69.21648901
O       99.43179876      81.98066152      69.21648222
C       97.10372271      83.27715836      62.28047859
O       98.04459667      83.94246152      62.28047180
C       97.10372271      83.27715836      87.25011609
O       98.04459667      83.94246152      87.25010930
C       92.94211646      89.16255836      69.21648901
O       93.88299042      89.82786152      69.21648222
C       90.16771229      93.08615836      83.08850984
O       91.10858626      93.75146152      83.08850305
C       86.00610604      98.97155836      70.60369109
O       86.94698001      99.63686152      70.60368430
C       98.49092479      81.31535836      85.86291401
O       99.43179876      81.98066152      85.86290722
C       91.55491438      91.12435836      67.82928693
O       92.49578834      91.78966152      67.82928014
C       88.78051021      95.04795836      81.70130776
O       89.72138417      95.71326152      81.70130097
C       84.61890396     100.93335836      77.53970151
O       85.55977792     101.59866152      77.53969472
C       90.16771229      93.08615836      71.99089318
O       91.10858626      93.75146152      71.99088639
C       88.78051021      95.04795836      73.37809526
O       89.72138417      95.71326152      73.37808847
C       98.49092479      81.31535836      63.66768068
O       99.43179876      81.98066152      63.66767389
C       95.71652063      85.23895836      85.86291401
O       96.65739459      85.90426152      85.86290722
C       91.55491438      91.12435836      84.47571193
O       92.49578834      91.78966152      84.47570514
C       95.71652063      85.23895836      60.89327651
O       96.65739459      85.90426152      60.89326972
C       97.10372271      83.27715836      70.60369109
O       98.04459667      83.94246152      70.60368430
C       84.61890396     100.93335836      74.76529734
O       85.55977792     101.59866152      74.76529055
C       94.32931854      87.20075836      84.47571193
O       95.27019251      87.86606152      84.47570514
C       98.49092479      81.31535836      77.53970151
O       99.43179876      81.98066152      77.53969472
C       90.16771229      93.08615836      74.76529734
O       91.10858626      93.75146152      74.76529055
C       91.55491438      91.12435836      65.05488276
O       92.49578834      91.78966152      65.05487597
C       90.16771229      93.08615836      77.53970151
O       91.10858626      93.75146152      77.53969472
C       87.39330813      97.00975836      69.21648901
O       88.33418209      97.67506152      69.21648222
C       94.32931854      87.20075836      73.37809526
O       95.27019251      87.86606152      73.37808847
C       94.32931854      87.20075836      87.25011609
O       95.27019251      87.86606152      87.25010930
C       88.78051021      95.04795836      76.15249943
O       89.72138417      95.71326152      76.15249264
C       91.55491438      91.12435836      73.37809526
O       92.49578834      91.78966152      73.37808847
C       97.10372271      83.27715836      73.37809526
O       98.04459667      83.94246152      73.37808847
C       97.10372271      83.27715836      78.92690359
O       98.04459667      83.94246152      78.92689680
C       94.32931854      87.20075836      76.15249943
O       95.27019251      87.86606152      76.15249264
C       88.78051021      95.04795836      67.82928693
O       89.72138417      95.71326152      67.82928014
C       92.94211646      89.16255836      66.44208484
O       93.88299042      89.82786152      66.44207805
C       95.71652063      85.23895836      83.08850984
O       96.65739459      85.90426152      83.08850305
C       92.94211646      89.16255836      71.99089318
O       93.88299042      89.82786152      71.99088639
C       95.71652063      85.23895836      69.21648901
O       96.65739459      85.90426152      69.21648222
C       95.71652063      85.23895836      66.44208484
O       96.65739459      85.90426152      66.44207805
C       88.78051021      95.04795836      70.60369109
O       89.72138417      95.71326152      70.60368430
C       94.32931854      87.20075836      70.60369109
O       95.27019251      87.86606152      70.60368430
C       86.00610604      98.97155836      78.92690359
O       86.94698001      99.63686152      78.92689680
C       91.55491438      91.12435836      81.70130776
O       92.49578834      91.78966152      81.70130097
C       95.71652063      85.23895836      88.63731818
O       96.65739459      85.90426152      88.63731139
C       88.78051021      95.04795836      78.92690359
O       89.72138417      95.71326152      78.92689680
C       95.71652063      85.23895836      77.53970151
O       96.65739459      85.90426152      77.53969472
C       91.55491438      91.12435836      70.60369109
O       92.49578834      91.78966152      70.60368430
C       92.94211646      89.16255836      77.53970151
O       93.88299042      89.82786152      77.53969472
C       97.10372271      83.27715836      67.82928693
O       98.04459667      83.94246152      67.82928014
C       98.49092479      81.31535836      74.76529734
O       99.43179876      81.98066152      74.76529055
C       92.94211646      89.16255836      83.08850984
O       93.88299042      89.82786152      83.08850305
C       53.81409614      85.23895836      85.86293609
O       52.87322217      85.90426152      85.86294288
C       56.58850030      89.16255836      63.66770276
O       55.64762634      89.82786152      63.66770954
C       57.97570239      91.12435836      78.92692567
O       57.03482842      91.78966152      78.92693246
C       51.03969197      81.31535836      83.08853192
O       50.09881801      81.98066152      83.08853871
C       53.81409614      85.23895836      66.44210692
O       52.87322217      85.90426152      66.44211371
C       56.58850030      89.16255836      77.53972359
O       55.64762634      89.82786152      77.53973038
C       63.52451072      98.97155836      76.15252151
O       62.58363676      99.63686152      76.15252829
C       51.03969197      81.31535836      80.31412776
O       50.09881801      81.98066152      80.31413454
C       55.20129822      87.20075836      65.05490484
O       54.26042426      87.86606152      65.05491163
C       52.42689405      83.27715836      78.92692567
O       51.48602009      83.94246152      78.92693246
C       53.81409614      85.23895836      80.31412776
O       52.87322217      85.90426152      80.31413454
C       57.97570239      91.12435836      81.70132984
O       57.03482842      91.78966152      81.70133663
C       59.36290447      93.08615836      77.53972359
O       58.42203051      93.75146152      77.53973038
C       53.81409614      85.23895836      77.53972359
O       52.87322217      85.90426152      77.53973038
C       56.58850030      89.16255836      85.86293609
O       55.64762634      89.82786152      85.86294288
C       60.75010655      95.04795836      78.92692567
O       59.80923259      95.71326152      78.92693246
C       53.81409614      85.23895836      69.21651109
O       52.87322217      85.90426152      69.21651788
C       53.81409614      85.23895836      88.63734026
O       52.87322217      85.90426152      88.63734704
C       64.91171280     100.93335836      74.76531942
O       63.97083884     101.59866152      74.76532621
C       52.42689405      83.27715836      62.28050067
O       51.48602009      83.94246152      62.28050746
C       56.58850030      89.16255836      69.21651109
O       55.64762634      89.82786152      69.21651788
C       63.52451072      98.97155836      70.60371317
O       62.58363676      99.63686152      70.60371996
C       57.97570239      91.12435836      84.47573401
O       57.03482842      91.78966152      84.47574079
C       55.20129822      87.20075836      84.47573401
O       54.26042426      87.86606152      84.47574079
C       52.42689405      83.27715836      73.37811734
O       51.48602009      83.94246152      73.37812413
C       62.13730864      97.00975836      77.53972359
O       61.19643467      97.67506152      77.53973038
C       51.03969197      81.31535836      71.99091526
O       50.09881801      81.98066152      71.99092204
C       52.42689405      83.27715836      70.60371317
O       51.48602009      83.94246152      70.60371996
C       52.42689405      83.27715836      67.82930901
O       51.48602009      83.94246152      67.82931579
C       59.36290447      93.08615836      83.08853192
O       58.42203051      93.75146152      83.08853871
C       56.58850030      89.16255836      74.76531942
O       55.64762634      89.82786152      74.76532621
C       52.42689405      83.27715836      65.05490484
O       51.48602009      83.94246152      65.05491163
C       56.58850030      89.16255836      83.08853192
O       55.64762634      89.82786152      83.08853871
C       57.97570239      91.12435836      73.37811734
O       57.03482842      91.78966152      73.37812413
C       56.58850030      89.16255836      71.99091526
O       55.64762634      89.82786152      71.99092204
C       62.13730864      97.00975836      80.31412776
O       61.19643467      97.67506152      80.31413454
C       55.20129822      87.20075836      70.60371317
O       54.26042426      87.86606152      70.60371996
C       55.20129822      87.20075836      87.25013817
O       54.26042426      87.86606152      87.25014496
C       57.97570239      91.12435836      67.82930901
O       57.03482842      91.78966152      67.82931579
C       55.20129822      87.20075836      73.37811734
O       54.26042426      87.86606152      73.37812413
C       63.52451072      98.97155836      78.92692567
O       62.58363676      99.63686152      78.92693246
C       55.20129822      87.20075836      76.15252151
O       54.26042426      87.86606152      76.15252829
C       56.58850030      89.16255836      66.44210692
O       55.64762634      89.82786152      66.44211371
C       51.03969197      81.31535836      74.76531942
O       50.09881801      81.98066152      74.76532621
C       59.36290447      93.08615836      80.31412776
O       58.42203051      93.75146152      80.31413454
C       59.36290447      93.08615836      74.76531942
O       58.42203051      93.75146152      74.76532621
C       63.52451072      98.97155836      73.37811734
O       62.58363676      99.63686152      73.37812413
C       60.75010655      95.04795836      81.70132984
O       59.80923259      95.71326152      81.70133663
C       60.75010655      95.04795836      70.60371317
O       59.80923259      95.71326152      70.60371996
C       55.20129822      87.20075836      62.28050067
O       54.26042426      87.86606152      62.28050746
C       52.42689405      83.27715836      87.25013817
O       51.48602009      83.94246152      87.25014496
C       53.81409614      85.23895836      60.89329859
O       52.87322217      85.90426152      60.89330538
C       51.03969197      81.31535836      66.44210692
O       50.09881801      81.98066152      66.44211371
C       53.81409614      85.23895836      71.99091526
O       52.87322217      85.90426152      71.99092204
C       62.13730864      97.00975836      71.99091526
O       61.19643467      97.67506152      71.99092204
C       62.13730864      97.00975836      74.76531942
O       61.19643467      97.67506152      74.76532621
C       51.03969197      81.31535836      85.86293609
O       50.09881801      81.98066152      85.86294288
C       53.81409614      85.23895836      74.76531942
O       52.87322217      85.90426152      74.76532621
C       56.58850030      89.16255836      80.31412776
O       55.64762634      89.82786152      80.31413454
C       53.81409614      85.23895836      83.08853192
O       52.87322217      85.90426152      83.08853871
C       55.20129822      87.20075836      67.82930901
O       54.26042426      87.86606152      67.82931579
C       60.75010655      95.04795836      76.15252151
O       59.80923259      95.71326152      76.15252829
C       55.20129822      87.20075836      81.70132984
O       54.26042426      87.86606152      81.70133663
C       59.36290447      93.08615836      69.21651109
O       58.42203051      93.75146152      69.21651788
C       62.13730864      97.00975836      69.21651109
O       61.19643467      97.67506152      69.21651788
C       52.42689405      83.27715836      81.70132984
O       51.48602009      83.94246152      81.70133663
C       60.75010655      95.04795836      67.82930901
O       59.80923259      95.71326152      67.82931579
C       59.36290447      93.08615836      66.44210692
O       58.42203051      93.75146152      66.44211371
C       55.20129822      87.20075836      78.92692567
O       54.26042426      87.86606152      78.92693246
C       57.97570239      91.12435836      76.15252151
O       57.03482842      91.78966152      76.15252829
C       51.03969197      81.31535836      63.66770276
O       50.09881801      81.98066152      63.66770954
C       53.81409614      85.23895836      63.66770276
O       52.87322217      85.90426152      63.66770954
C       60.75010655      95.04795836      73.37811734
O       59.80923259      95.71326152      73.37812413
C       59.36290447      93.08615836      71.99091526
O       58.42203051      93.75146152      71.99092204
C       51.03969197      81.31535836      77.53972359
O       50.09881801      81.98066152      77.53973038
C       52.42689405      83.27715836      84.47573401
O       51.48602009      83.94246152      84.47574079
C       52.42689405      83.27715836      76.15252151
O       51.48602009      83.94246152      76.15252829
C       57.97570239      91.12435836      70.60371317
O       57.03482842      91.78966152      70.60371996
C       64.91171280     100.93335836      71.99091526
O       63.97083884     101.59866152      71.99092204
C       57.97570239      91.12435836      65.05490484
O       57.03482842      91.78966152      65.05491163
C       64.91171280     100.93335836      77.53972359
O       63.97083884     101.59866152      77.53973038
C       51.03969197      81.31535836      69.21651109
O       50.09881801      81.98066152      69.21651788
C       87.25011609      69.34205424      97.10372271
O       87.25010930      68.67675108      98.04459667
C       69.21648901      67.38025424      95.71652063
O       69.21648222      66.71495108      96.65739459
C       76.15249943      57.57125424      88.78051021
O       76.15249264      56.90595108      89.72138417
C       77.53970151      63.45665424      92.94211646
O       77.53969472      62.79135108      93.88299042
C       71.99089318      59.53305424      90.16771229
O       71.99088639      58.86775108      91.10858626
C       67.82928693      69.34205424      97.10372271
O       67.82928014      68.67675108      98.04459667
C       77.53970151      71.30385424      98.49092479
O       77.53969472      70.63855108      99.43179876
C       69.21648901      59.53305424      90.16771229
O       69.21648222      58.86775108      91.10858626
C       60.89327651      67.38025424      95.71652063
O       60.89326972      66.71495108      96.65739459
C       84.47571193      65.41845424      94.32931854
O       84.47570514      64.75315108      95.27019251
C       66.44208484      71.30385424      98.49092479
O       66.44207805      70.63855108      99.43179876
C       62.28047859      69.34205424      97.10372271
O       62.28047180      68.67675108      98.04459667
C       81.70130776      57.57125424      88.78051021
O       81.70130097      56.90595108      89.72138417
C       70.60369109      57.57125424      88.78051021
O       70.60368430      56.90595108      89.72138417
C       70.60369109      53.64765424      86.00610604
O       70.60368430      52.98235108      86.94698001
C       71.99089318      63.45665424      92.94211646
O       71.99088639      62.79135108      93.88299042
C       74.76529734      63.45665424      92.94211646
O       74.76529055      62.79135108      93.88299042
C       84.47571193      69.34205424      97.10372271
O       84.47570514      68.67675108      98.04459667
C       85.86291401      71.30385424      98.49092479
O       85.86290722      70.63855108      99.43179876
C       67.82928693      65.41845424      94.32931854
O       67.82928014      64.75315108      95.27019251
C       73.37809526      61.49485424      91.55491438
O       73.37808847      60.82955108      92.49578834
C       66.44208484      63.45665424      92.94211646
O       66.44207805      62.79135108      93.88299042
C       87.25011609      65.41845424      94.32931854
O       87.25010930      64.75315108      95.27019251
C       70.60369109      69.34205424      97.10372271
O       70.60368430      68.67675108      98.04459667
C       65.05488276      69.34205424      97.10372271
O       65.05487597      68.67675108      98.04459667
C       66.44208484      59.53305424      90.16771229
O       66.44207805      58.86775108      91.10858626
C       76.15249943      65.41845424      94.32931854
O       76.15249264      64.75315108      95.27019251
C       76.15249943      61.49485424      91.55491438
O       76.15249264      60.82955108      92.49578834
C       76.15249943      69.34205424      97.10372271
O       76.15249264      68.67675108      98.04459667
C       77.53970151      51.68585424      84.61890396
O       77.53969472      51.02055108      85.55977792
C       71.99089318      51.68585424      84.61890396
O       71.99088639      51.02055108      85.55977792
C       69.21648901      71.30385424      98.49092479
O       69.21648222      70.63855108      99.43179876
C       77.53970151      59.53305424      90.16771229
O       77.53969472      58.86775108      91.10858626
C       78.92690359      69.34205424      97.10372271
O       78.92689680      68.67675108      98.04459667
C       78.92690359      57.57125424      88.78051021
O       78.92689680      56.90595108      89.72138417
C       83.08850984      63.45665424      92.94211646
O       83.08850305      62.79135108      93.88299042
C       73.37809526      53.64765424      86.00610604
O       73.37808847      52.98235108      86.94698001
C       77.53970151      67.38025424      95.71652063
O       77.53969472      66.71495108      96.65739459
C       63.66768068      67.38025424      95.71652063
O       63.66767389      66.71495108      96.65739459
C       73.37809526      69.34205424      97.10372271
O       73.37808847      68.67675108      98.04459667
C       65.05488276      65.41845424      94.32931854
O       65.05487597      64.75315108      95.27019251
C       81.70130776      65.41845424      94.32931854
O       81.70130097      64.75315108      95.27019251
C       76.15249943      53.64765424      86.00610604
O       76.15249264      52.98235108      86.94698001
C       78.92690359      53.64765424      86.00610604
O       78.92689680      52.98235108      86.94698001
C       74.76529734      67.38025424      95.71652063
O       74.76529055      66.71495108      96.65739459
C       65.05488276      61.49485424      91.55491438
O       65.05487597      60.82955108      92.49578834
C       73.37809526      57.57125424      88.78051021
O       73.37808847      56.90595108      89.72138417
C       71.99089318      71.30385424      98.49092479
O       71.99088639      70.63855108      99.43179876
C       83.08850984      59.53305424      90.16771229
O       83.08850305      58.86775108      91.10858626
C       81.70130776      61.49485424      91.55491438
O       81.70130097      60.82955108      92.49578834
C       78.92690359      65.41845424      94.32931854
O       78.92689680      64.75315108      95.27019251
C       80.31410568      67.38025424      95.71652063
O       80.31409889      66.71495108      96.65739459
C       83.08850984      67.38025424      95.71652063
O       83.08850305      66.71495108      96.65739459
C       69.21648901      55.60945424      87.39330813
O       69.21648222      54.94415108      88.33418209
C       83.08850984      71.30385424      98.49092479
O       83.08850305      70.63855108      99.43179876
C       77.53970151      55.60945424      87.39330813
O       77.53969472      54.94415108      88.33418209
C       70.60369109      65.41845424      94.32931854
O       70.60368430      64.75315108      95.27019251
C       67.82928693      57.57125424      88.78051021
O       67.82928014      56.90595108      89.72138417
C       66.44208484      67.38025424      95.71652063
O       66.44207805      66.71495108      96.65739459
C       71.99089318      67.38025424      95.71652063
O       71.99088639      66.71495108      96.65739459
C       69.21648901      63.45665424      92.94211646
O       69.21648222      62.79135108      93.88299042
C       80.31410568      71.30385424      98.49092479
O       80.31409889      70.63855108      99.43179876
C       74.76529734      59.53305424      90.16771229
O       74.76529055      58.86775108      91.10858626
C       62.28047859      65.41845424      94.32931854
O       62.28047180      64.75315108      95.27019251
C       85.86291401      63.45665424      92.94211646
O       85.86290722      62.79135108      93.88299042
C       80.31410568      63.45665424      92.94211646
O       80.31409889      62.79135108      93.88299042
C       81.70130776      69.34205424      97.10372271
O       81.70130097      68.67675108      98.04459667
C       74.76529734      55.60945424      87.39330813
O       74.76529055      54.94415108      88.33418209
C       74.76529734      51.68585424      84.61890396
O       74.76529055      51.02055108      85.55977792
C       88.63731818      67.38025424      95.71652063
O       88.63731139      66.71495108      96.65739459
C       71.99089318      55.60945424      87.39330813
O       71.99088639      54.94415108      88.33418209
C       84.47571193      61.49485424      91.55491438
O       84.47570514      60.82955108      92.49578834
C       85.86291401      67.38025424      95.71652063
O       85.86290722      66.71495108      96.65739459
C       73.37809526      65.41845424      94.32931854
O       73.37808847      64.75315108      95.27019251
C       74.76529734      71.30385424      98.49092479
O       74.76529055      70.63855108      99.43179876
C       63.66768068      71.30385424      98.49092479
O       63.66767389      70.63855108      99.43179876
C       80.31410568      55.60945424      87.39330813
O       80.31409889      54.94415108      88.33418209
C       70.60369109      61.49485424      91.55491438
O       70.60368430      60.82955108      92.49578834
C       63.66768068      63.45665424      92.94211646
O       63.66767389      62.79135108      93.88299042
C       67.82928693      61.49485424      91.55491438
O       67.82928014      60.82955108      92.49578834
C       78.92690359      61.49485424      91.55491438
O       78.92689680      60.82955108      92.49578834
C       80.31410568      59.53305424      90.16771229
O       80.31409889      58.86775108      91.10858626
C       63.66770276      71.30385424      51.03969197
O       63.66770954      70.63855108      50.09881801
C       71.99091526      71.30385424      51.03969197
O       71.99092204      70.63855108      50.09881801
C       87.25013817      69.34205424      52.42689405
O       87.25014496      68.67675108      51.48602009
C       71.99091526      51.68585424      64.91171280
O       71.99092204      51.02055108      63.97083884
C       84.47573401      69.34205424      52.42689405
O       84.47574079      68.67675108      51.48602009
C       76.15252151      69.34205424      52.42689405
O       76.15252829      68.67675108      51.48602009
C       83.08853192      59.53305424      59.36290447
O       83.08853871      58.86775108      58.42203051
C       70.60371317      69.34205424      52.42689405
O       70.60371996      68.67675108      51.48602009
C       62.28050067      65.41845424      55.20129822
O       62.28050746      64.75315108      54.26042426
C       81.70132984      65.41845424      55.20129822
O       81.70133663      64.75315108      54.26042426
C       69.21651109      71.30385424      51.03969197
O       69.21651788      70.63855108      50.09881801
C       85.86293609      71.30385424      51.03969197
O       85.86294288      70.63855108      50.09881801
C       63.66770276      63.45665424      56.58850030
O       63.66770954      62.79135108      55.64762634
C       85.86293609      63.45665424      56.58850030
O       85.86294288      62.79135108      55.64762634
C       74.76531942      51.68585424      64.91171280
O       74.76532621      51.02055108      63.97083884
C       81.70132984      61.49485424      57.97570239
O       81.70133663      60.82955108      57.03482842
C       74.76531942      63.45665424      56.58850030
O       74.76532621      62.79135108      55.64762634
C       67.82930901      65.41845424      55.20129822
O       67.82931579      64.75315108      54.26042426
C       70.60371317      65.41845424      55.20129822
O       70.60371996      64.75315108      54.26042426
C       67.82930901      57.57125424      60.75010655
O       67.82931579      56.90595108      59.80923259
C       67.82930901      61.49485424      57.97570239
O       67.82931579      60.82955108      57.03482842
C       74.76531942      67.38025424      53.81409614
O       74.76532621      66.71495108      52.87322217
C       80.31412776      59.53305424      59.36290447
O       80.31413454      58.86775108      58.42203051
C       83.08853192      71.30385424      51.03969197
O       83.08853871      70.63855108      50.09881801
C       73.37811734      61.49485424      57.97570239
O       73.37812413      60.82955108      57.03482842
C       85.86293609      67.38025424      53.81409614
O       85.86294288      66.71495108      52.87322217
C       78.92692567      69.34205424      52.42689405
O       78.92693246      68.67675108      51.48602009
C       76.15252151      61.49485424      57.97570239
O       76.15252829      60.82955108      57.03482842
C       67.82930901      69.34205424      52.42689405
O       67.82931579      68.67675108      51.48602009
C       70.60371317      57.57125424      60.75010655
O       70.60371996      56.90595108      59.80923259
C       84.47573401      61.49485424      57.97570239
O       84.47574079      60.82955108      57.03482842
C       78.92692567      57.57125424      60.75010655
O       78.92693246      56.90595108      59.80923259
C       80.31412776      55.60945424      62.13730864
O       80.31413454      54.94415108      61.19643467
C       80.31412776      63.45665424      56.58850030
O       80.31413454      62.79135108      55.64762634
C       71.99091526      63.45665424      56.58850030
O       71.99092204      62.79135108      55.64762634
C       71.99091526      67.38025424      53.81409614
O       71.99092204      66.71495108      52.87322217
C       81.70132984      69.34205424      52.42689405
O       81.70133663      68.67675108      51.48602009
C       84.47573401      65.41845424      55.20129822
O       84.47574079      64.75315108      54.26042426
C       80.31412776      71.30385424      51.03969197
O       80.31413454      70.63855108      50.09881801
C       74.76531942      55.60945424      62.13730864
O       74.76532621      54.94415108      61.19643467
C       77.53972359      67.38025424      53.81409614
O       77.53973038      66.71495108      52.87322217
C       66.44210692      71.30385424      51.03969197
O       66.44211371      70.63855108      50.09881801
C       73.37811734      65.41845424      55.20129822
O       73.37812413      64.75315108      54.26042426
C       62.28050067      69.34205424      52.42689405
O       62.28050746      68.67675108      51.48602009
C       77.53972359      71.30385424      51.03969197
O       77.53973038      70.63855108      50.09881801
C       77.53972359      63.45665424      56.58850030
O       77.53973038      62.79135108      55.64762634
C       83.08853192      67.38025424      53.81409614
O       83.08853871      66.71495108      52.87322217
C       65.05490484      65.41845424      55.20129822
O       65.05491163      64.75315108      54.26042426
C       73.37811734      57.57125424      60.75010655
O       73.37812413      56.90595108      59.80923259
C       74.76531942      71.30385424      51.03969197
O       74.76532621      70.63855108      50.09881801
C       78.92692567      61.49485424      57.97570239
O       78.92693246      60.82955108      57.03482842
C       69.21651109      63.45665424      56.58850030
O       69.21651788      62.79135108      55.64762634
C       69.21651109      67.38025424      53.81409614
O       69.21651788      66.71495108      52.87322217
C       87.25013817      65.41845424      55.20129822
O       87.25014496      64.75315108      54.26042426
C       77.53972359      51.68585424      64.91171280
O       77.53973038      51.02055108      63.97083884
C       80.31412776      67.38025424      53.81409614
O       80.31413454      66.71495108      52.87322217
C       73.37811734      53.64765424      63.52451072
O       73.37812413      52.98235108      62.58363676
C       76.15252151      57.57125424      60.75010655
O       76.15252829      56.90595108      59.80923259
C       71.99091526      59.53305424      59.36290447
O       71.99092204      58.86775108      58.42203051
C       73.37811734      69.34205424      52.42689405
O       73.37812413      68.67675108      51.48602009
C       66.44210692      67.38025424      53.81409614
O       66.44211371      66.71495108      52.87322217
C       66.44210692      59.53305424      59.36290447
O       66.44211371      58.86775108      58.42203051
C       70.60371317      53.64765424      63.52451072
O       70.60371996      52.98235108      62.58363676
C       76.15252151      53.64765424      63.52451072
O       76.15252829      52.98235108      62.58363676
C       81.70132984      57.57125424      60.75010655
O       81.70133663      56.90595108      59.80923259
C       76.15252151      65.41845424      55.20129822
O       76.15252829      64.75315108      54.26042426
C       60.89329859      67.38025424      53.81409614
O       60.89330538      66.71495108      52.87322217
C       63.66770276      67.38025424      53.81409614
O       63.66770954      66.71495108      52.87322217
C       66.44210692      63.45665424      56.58850030
O       66.44211371      62.79135108      55.64762634
C       74.76531942      59.53305424      59.36290447
O       74.76532621      58.86775108      58.42203051
C       88.63734026      67.38025424      53.81409614
O       88.63734704      66.71495108      52.87322217
C       65.05490484      69.34205424      52.42689405
O       65.05491163      68.67675108      51.48602009
C       77.53972359      55.60945424      62.13730864
O       77.53973038      54.94415108      61.19643467
C       78.92692567      53.64765424      63.52451072
O       78.92693246      52.98235108      62.58363676
C       69.21651109      59.53305424      59.36290447
O       69.21651788      58.86775108      58.42203051
C       77.53972359      59.53305424      59.36290447
O       77.53973038      58.86775108      58.42203051
C       71.99091526      55.60945424      62.13730864
O       71.99092204      54.94415108      61.19643467
C       83.08853192      63.45665424      56.58850030
O       83.08853871      62.79135108      55.64762634
C       70.60371317      61.49485424      57.97570239
O       70.60371996      60.82955108      57.03482842
C       78.92692567      65.41845424      55.20129822
O       78.92693246      64.75315108      54.26042426
C       69.21651109      55.60945424      62.13730864
O       69.21651788      54.94415108      61.19643467
C       65.05490484      61.49485424      57.97570239
O       65.05491163      60.82955108      57.03482842
C       83.08850984      85.23895836      95.71652063
O       83.08850305      85.90426152      96.65739459
C       70.60369109      98.97155836      86.00610604
O       70.60368430      99.63686152      86.94698001
C       74.76529734      85.23895836      95.71652063
O       74.76529055      85.90426152      96.65739459
C       77.53970151     100.93335836      84.61890396
O       77.53969472     101.59866152      85.55977792
C       71.99089318      81.31535836      98.49092479
O       71.99088639      81.98066152      99.43179876
C       71.99089318     100.93335836      84.61890396
O       71.99088639     101.59866152      85.55977792
C       76.15249943      95.04795836      88.78051021
O       76.15249264      95.71326152      89.72138417
C       73.37809526      91.12435836      91.55491438
O       73.37808847      91.78966152      92.49578834
C       70.60369109      87.20075836      94.32931854
O       70.60368430      87.86606152      95.27019251
C       85.86291401      81.31535836      98.49092479
O       85.86290722      81.98066152      99.43179876
C       73.37809526      87.20075836      94.32931854
O       73.37808847      87.86606152      95.27019251
C       66.44208484      85.23895836      95.71652063
O       66.44207805      85.90426152      96.65739459
C       81.70130776      91.12435836      91.55491438
O       81.70130097      91.78966152      92.49578834
C       69.21648901      89.16255836      92.94211646
O       69.21648222      89.82786152      93.88299042
C       78.92690359      87.20075836      94.32931854
O       78.92689680      87.86606152      95.27019251
C       77.53970151      89.16255836      92.94211646
O       77.53969472      89.82786152      93.88299042
C       74.76529734      93.08615836      90.16771229
O       74.76529055      93.75146152      91.10858626
C       65.05488276      83.27715836      97.10372271
O       65.05487597      83.94246152      98.04459667
C       62.28047859      83.27715836      97.10372271
O       62.28047180      83.94246152      98.04459667
C       83.08850984      81.31535836      98.49092479
O       83.08850305      81.98066152      99.43179876
C       83.08850984      93.08615836      90.16771229
O       83.08850305      93.75146152      91.10858626
C       80.31410568      81.31535836      98.49092479
O       80.31409889      81.98066152      99.43179876
C       63.66768068      89.16255836      92.94211646
O       63.66767389      89.82786152      93.88299042
C       73.37809526      83.27715836      97.10372271
O       73.37808847      83.94246152      98.04459667
C       78.92690359      98.97155836      86.00610604
O       78.92689680      99.63686152      86.94698001
C       87.25011609      87.20075836      94.32931854
O       87.25010930      87.86606152      95.27019251
C       76.15249943      83.27715836      97.10372271
O       76.15249264      83.94246152      98.04459667
C       74.76529734      81.31535836      98.49092479
O       74.76529055      81.98066152      99.43179876
C       63.66768068      81.31535836      98.49092479
O       63.66767389      81.98066152      99.43179876
C       70.60369109      83.27715836      97.10372271
O       70.60368430      83.94246152      98.04459667
C       80.31410568      97.00975836      87.39330813
O       80.31409889      97.67506152      88.33418209
C       85.86291401      89.16255836      92.94211646
O       85.86290722      89.82786152      93.88299042
C       71.99089318      85.23895836      95.71652063
O       71.99088639      85.90426152      96.65739459
C       77.53970151      81.31535836      98.49092479
O       77.53969472      81.98066152      99.43179876
C       67.82928693      95.04795836      88.78051021
O       67.82928014      95.71326152      89.72138417
C       80.31410568      85.23895836      95.71652063
O       80.31409889      85.90426152      96.65739459
C       69.21648901      85.23895836      95.71652063
O       69.21648222      85.90426152      96.65739459
C       84.47571193      87.20075836      94.32931854
O       84.47570514      87.86606152      95.27019251
C       88.63731818      85.23895836      95.71652063
O       88.63731139      85.90426152      96.65739459
C       69.21648901      81.31535836      98.49092479
O       69.21648222      81.98066152      99.43179876
C       69.21648901      93.08615836      90.16771229
O       69.21648222      93.75146152      91.10858626
C       78.92690359      95.04795836      88.78051021
O       78.92689680      95.71326152      89.72138417
C       62.28047859      87.20075836      94.32931854
O       62.28047180      87.86606152      95.27019251
C       80.31410568      93.08615836      90.16771229
O       80.31409889      93.75146152      91.10858626
C       83.08850984      89.16255836      92.94211646
O       83.08850305      89.82786152      93.88299042
C       60.89327651      85.23895836      95.71652063
O       60.89326972      85.90426152      96.65739459
C       67.82928693      87.20075836      94.32931854
O       67.82928014      87.86606152      95.27019251
C       74.76529734      89.16255836      92.94211646
O       74.76529055      89.82786152      93.88299042
C       71.99089318      93.08615836      90.16771229
O       71.99088639      93.75146152      91.10858626
C       71.99089318      97.00975836      87.39330813
O       71.99088639      97.67506152      88.33418209
C       78.92690359      91.12435836      91.55491438
O       78.92689680      91.78966152      92.49578834
C       65.05488276      91.12435836      91.55491438
O       65.05487597      91.78966152      92.49578834
C       84.47571193      83.27715836      97.10372271
O       84.47570514      83.94246152      98.04459667
C       66.44208484      89.16255836      92.94211646
O       66.44207805      89.82786152      93.88299042
C       70.60369109      95.04795836      88.78051021
O       70.60368430      95.71326152      89.72138417
C       67.82928693      91.12435836      91.55491438
O       67.82928014      91.78966152      92.49578834
C       84.47571193      91.12435836      91.55491438
O       84.47570514      91.78966152      92.49578834
C       76.15249943      98.97155836      86.00610604
O       76.15249264      99.63686152      86.94698001
C       78.92690359      83.27715836      97.10372271
O       78.92689680      83.94246152      98.04459667
C       73.37809526      98.97155836      86.00610604
O       73.37808847      99.63686152      86.94698001
C       66.44208484      93.08615836      90.16771229
O       66.44207805      93.75146152      91.10858626
C       74.76529734     100.93335836      84.61890396
O       74.76529055     101.59866152      85.55977792
C       77.53970151      85.23895836      95.71652063
O       77.53969472      85.90426152      96.65739459
C       77.53970151      93.08615836      90.16771229
O       77.53969472      93.75146152      91.10858626
C       76.15249943      91.12435836      91.55491438
O       76.15249264      91.78966152      92.49578834
C       81.70130776      95.04795836      88.78051021
O       81.70130097      95.71326152      89.72138417
C       80.31410568      89.16255836      92.94211646
O       80.31409889      89.82786152      93.88299042
C       63.66768068      85.23895836      95.71652063
O       63.66767389      85.90426152      96.65739459
C       67.82928693      83.27715836      97.10372271
O       67.82928014      83.94246152      98.04459667
C       87.25011609      83.27715836      97.10372271
O       87.25010930      83.94246152      98.04459667
C       74.76529734      97.00975836      87.39330813
O       74.76529055      97.67506152      88.33418209
C       65.05488276      87.20075836      94.32931854
O       65.05487597      87.86606152      95.27019251
C       71.99089318      89.16255836      92.94211646
O       71.99088639      89.82786152      93.88299042
C       81.70130776      87.20075836      94.32931854
O       81.70130097      87.86606152      95.27019251
C       69.21648901      97.00975836      87.39330813
O       69.21648222      97.67506152      88.33418209
C       81.70130776      83.27715836      97.10372271
O       81.70130097      83.94246152      98.04459667
C       77.53970151      97.00975836      87.39330813
O       77.53969472      97.67506152      88.33418209
C       70.60369109      91.12435836      91.55491438
O       70.60368430      91.78966152      92.49578834
C       76.15249943      87.20075836      94.32931854
O       76.15249264      87.86606152      95.27019251
C       85.86291401      85.23895836      95.71652063
O       85.86290722      85.90426152      96.65739459
C       73.37809526      95.04795836      88.78051021
O       73.37808847      95.71326152      89.72138417
C       66.44208484      81.31535836      98.49092479
O       66.44207805      81.98066152      99.43179876
C       86.00610604      53.64765424      70.60369109
O       86.94698001      52.98235108      70.60368430
C       92.94211646      63.45665424      80.31410568
O       93.88299042      62.79135108      80.31409889
C       98.49092479      71.30385424      77.53970151
O       99.43179876      70.63855108      77.53969472
C       97.10372271      69.34205424      65.05488276
O       98.04459667      68.67675108      65.05487597
C       90.16771229      59.53305424      74.76529734
O       91.10858626      58.86775108      74.76529055
C       95.71652063      67.38025424      71.99089318
O       96.65739459      66.71495108      71.99088639
C       87.39330813      55.60945424      71.99089318
O       88.33418209      54.94415108      71.99088639
C       91.55491438      61.49485424      70.60369109
O       92.49578834      60.82955108      70.60368430
C       90.16771229      59.53305424      80.31410568
O       91.10858626      58.86775108      80.31409889
C       97.10372271      69.34205424      73.37809526
O       98.04459667      68.67675108      73.37808847
C       97.10372271      69.34205424      87.25011609
O       98.04459667      68.67675108      87.25010930
C       94.32931854      65.41845424      87.25011609
O       95.27019251      64.75315108      87.25010930
C       91.55491438      61.49485424      73.37809526
O       92.49578834      60.82955108      73.37808847
C       97.10372271      69.34205424      81.70130776
O       98.04459667      68.67675108      81.70130097
C       91.55491438      61.49485424      78.92690359
O       92.49578834      60.82955108      78.92689680
C       98.49092479      71.30385424      69.21648901
O       99.43179876      70.63855108      69.21648222
C       90.16771229      59.53305424      66.44208484
O       91.10858626      58.86775108      66.44207805
C       95.71652063      67.38025424      74.76529734
O       96.65739459      66.71495108      74.76529055
C       95.71652063      67.38025424      66.44208484
O       96.65739459      66.71495108      66.44207805
C       87.39330813      55.60945424      74.76529734
O       88.33418209      54.94415108      74.76529055
C       90.16771229      59.53305424      71.99089318
O       91.10858626      58.86775108      71.99088639
C       92.94211646      63.45665424      77.53970151
O       93.88299042      62.79135108      77.53969472
C       98.49092479      71.30385424      80.31410568
O       99.43179876      70.63855108      80.31409889
C       97.10372271      69.34205424      67.82928693
O       98.04459667      68.67675108      67.82928014
C       90.16771229      59.53305424      77.53970151
O       91.10858626      58.86775108      77.53969472
C       92.94211646      63.45665424      63.66768068
O       93.88299042      62.79135108      63.66767389
C       94.32931854      65.41845424      76.15249943
O       95.27019251      64.75315108      76.15249264
C       97.10372271      69.34205424      62.28047859
O       98.04459667      68.67675108      62.28047180
C       97.10372271      69.34205424      76.15249943
O       98.04459667      68.67675108      76.15249264
C       91.55491438      61.49485424      81.70130776
O       92.49578834      60.82955108      81.70130097
C       94.32931854      65.41845424      65.05488276
O       95.27019251      64.75315108      65.05487597
C       88.78051021      57.57125424      67.82928693
O       89.72138417      56.90595108      67.82928014
C       87.39330813      55.60945424      69.21648901
O       88.33418209      54.94415108      69.21648222
C       95.71652063      67.38025424      69.21648901
O       96.65739459      66.71495108      69.21648222
C       94.32931854      65.41845424      78.92690359
O       95.27019251      64.75315108      78.92689680
C       94.32931854      65.41845424      62.28047859
O       95.27019251      64.75315108      62.28047180
C       88.78051021      57.57125424      73.37809526
O       89.72138417      56.90595108      73.37808847
C       86.00610604      53.64765424      76.15249943
O       86.94698001      52.98235108      76.15249264
C       92.94211646      63.45665424      85.86291401
O       93.88299042      62.79135108      85.86290722
C       95.71652063      67.38025424      83.08850984
O       96.65739459      66.71495108      83.08850305
C       94.32931854      65.41845424      73.37809526
O       95.27019251      64.75315108      73.37808847
C       98.49092479      71.30385424      66.44208484
O       99.43179876      70.63855108      66.44207805
C       92.94211646      63.45665424      69.21648901
O       93.88299042      62.79135108      69.21648222
C       92.94211646      63.45665424      71.99089318
O       93.88299042      62.79135108      71.99088639
C       88.78051021      57.57125424      78.92690359
O       89.72138417      56.90595108      78.92689680
C       94.32931854      65.41845424      84.47571193
O       95.27019251      64.75315108      84.47570514
C       95.71652063      67.38025424      77.53970151
O       96.65739459      66.71495108      77.53969472
C       95.71652063      67.38025424      60.89327651
O       96.65739459      66.71495108      60.89326972
C       87.39330813      55.60945424      80.31410568
O       88.33418209      54.94415108      80.31409889
C       98.49092479      71.30385424      85.86291401
O       99.43179876      70.63855108      85.86290722
C       97.10372271      69.34205424      84.47571193
O       98.04459667      68.67675108      84.47570514
C       97.10372271      69.34205424      78.92690359
O       98.04459667      68.67675108      78.92689680
C       94.32931854      65.41845424      81.70130776
O       95.27019251      64.75315108      81.70130097
C       98.49092479      71.30385424      63.66768068
O       99.43179876      70.63855108      63.66767389
C       91.55491438      61.49485424      65.05488276
O       92.49578834      60.82955108      65.05487597
C       90.16771229      59.53305424      83.08850984
O       91.10858626      58.86775108      83.08850305
C       95.71652063      67.38025424      88.63731818
O       96.65739459      66.71495108      88.63731139
C       84.61890396      51.68585424      71.99089318
O       85.55977792      51.02055108      71.99088639
C       86.00610604      53.64765424      78.92690359
O       86.94698001      52.98235108      78.92689680
C       98.49092479      71.30385424      71.99089318
O       99.43179876      70.63855108      71.99088639
C       88.78051021      57.57125424      76.15249943
O       89.72138417      56.90595108      76.15249264
C       94.32931854      65.41845424      70.60369109
O       95.27019251      64.75315108      70.60368430
C       94.32931854      65.41845424      67.82928693
O       95.27019251      64.75315108      67.82928014
C       87.39330813      55.60945424      77.53970151
O       88.33418209      54.94415108      77.53969472
C       98.49092479      71.30385424      83.08850984
O       99.43179876      70.63855108      83.08850305
C       90.16771229      59.53305424      69.21648901
O       91.10858626      58.86775108      69.21648222
C       98.49092479      71.30385424      74.76529734
O       99.43179876      70.63855108      74.76529055
C       95.71652063      67.38025424      85.86291401
O       96.65739459      66.71495108      85.86290722
C       84.61890396      51.68585424      74.76529734
O       85.55977792      51.02055108      74.76529055
C       88.78051021      57.57125424      70.60369109
O       89.72138417      56.90595108      70.60368430
C       91.55491438      61.49485424      76.15249943
O       92.49578834      60.82955108      76.15249264
C       92.94211646      63.45665424      83.08850984
O       93.88299042      62.79135108      83.08850305
C       92.94211646      63.45665424      66.44208484
O       93.88299042      62.79135108      66.44207805
C       91.55491438      61.49485424      84.47571193
O       92.49578834      60.82955108      84.47570514
C       86.00610604      53.64765424      73.37809526
O       86.94698001      52.98235108      73.37808847
C       95.71652063      67.38025424      80.31410568
O       96.65739459      66.71495108      80.31409889
C       84.61890396      51.68585424      77.53970151
O       85.55977792      51.02055108      77.53969472
C       88.78051021      57.57125424      81.70130776
O       89.72138417      56.90595108      81.70130097
C       97.10372271      69.34205424      70.60369109
O       98.04459667      68.67675108      70.60368430
C       91.55491438      61.49485424      67.82928693
O       92.49578834      60.82955108      67.82928014
C       95.71652063      67.38025424      63.66768068
O       96.65739459      66.71495108      63.66767389
C       92.94211646      63.45665424      74.76529734
O       93.88299042      62.79135108      74.76529055
C       63.52451072      53.64765424      70.60371317
O       62.58363676      52.98235108      70.60371996
C       55.20129822      65.41845424      78.92692567
O       54.26042426      64.75315108      78.92693246
C       56.58850030      63.45665424      71.99091526
O       55.64762634      62.79135108      71.99092204
C       62.13730864      55.60945424      71.99091526
O       61.19643467      54.94415108      71.99092204
C       52.42689405      69.34205424      65.05490484
O       51.48602009      68.67675108      65.05491163
C       56.58850030      63.45665424      83.08853192
O       55.64762634      62.79135108      83.08853871
C       52.42689405      69.34205424      76.15252151
O       51.48602009      68.67675108      76.15252829
C       57.97570239      61.49485424      70.60371317
O       57.03482842      60.82955108      70.60371996
C       62.13730864      55.60945424      80.31412776
O       61.19643467      54.94415108      80.31413454
C       56.58850030      63.45665424      69.21651109
O       55.64762634      62.79135108      69.21651788
C       59.36290447      59.53305424      69.21651109
O       58.42203051      58.86775108      69.21651788
C       63.52451072      53.64765424      76.15252151
O       62.58363676      52.98235108      76.15252829
C       57.97570239      61.49485424      73.37811734
O       57.03482842      60.82955108      73.37812413
C       51.03969197      71.30385424      71.99091526
O       50.09881801      70.63855108      71.99092204
C       52.42689405      69.34205424      84.47573401
O       51.48602009      68.67675108      84.47574079
C       56.58850030      63.45665424      80.31412776
O       55.64762634      62.79135108      80.31413454
C       62.13730864      55.60945424      69.21651109
O       61.19643467      54.94415108      69.21651788
C       53.81409614      67.38025424      85.86293609
O       52.87322217      66.71495108      85.86294288
C       51.03969197      71.30385424      85.86293609
O       50.09881801      70.63855108      85.86294288
C       55.20129822      65.41845424      73.37811734
O       54.26042426      64.75315108      73.37812413
C       56.58850030      63.45665424      63.66770276
O       55.64762634      62.79135108      63.66770954
C       57.97570239      61.49485424      65.05490484
O       57.03482842      60.82955108      65.05491163
C       64.91171280      51.68585424      71.99091526
O       63.97083884      51.02055108      71.99092204
C       62.13730864      55.60945424      74.76531942
O       61.19643467      54.94415108      74.76532621
C       57.97570239      61.49485424      78.92692567
O       57.03482842      60.82955108      78.92693246
C       59.36290447      59.53305424      74.76531942
O       58.42203051      58.86775108      74.76532621
C       55.20129822      65.41845424      81.70132984
O       54.26042426      64.75315108      81.70133663
C       53.81409614      67.38025424      66.44210692
O       52.87322217      66.71495108      66.44211371
C       55.20129822      65.41845424      70.60371317
O       54.26042426      64.75315108      70.60371996
C       55.20129822      65.41845424      76.15252151
O       54.26042426      64.75315108      76.15252829
C       56.58850030      63.45665424      66.44210692
O       55.64762634      62.79135108      66.44211371
C       60.75010655      57.57125424      78.92692567
O       59.80923259      56.90595108      78.92693246
C       53.81409614      67.38025424      77.53972359
O       52.87322217      66.71495108      77.53973038
C       53.81409614      67.38025424      69.21651109
O       52.87322217      66.71495108      69.21651788
C       53.81409614      67.38025424      60.89329859
O       52.87322217      66.71495108      60.89330538
C       57.97570239      61.49485424      67.82930901
O       57.03482842      60.82955108      67.82931579
C       60.75010655      57.57125424      81.70132984
O       59.80923259      56.90595108      81.70133663
C       56.58850030      63.45665424      77.53972359
O       55.64762634      62.79135108      77.53973038
C       52.42689405      69.34205424      62.28050067
O       51.48602009      68.67675108      62.28050746
C       55.20129822      65.41845424      62.28050067
O       54.26042426      64.75315108      62.28050746
C       51.03969197      71.30385424      66.44210692
O       50.09881801      70.63855108      66.44211371
C       59.36290447      59.53305424      66.44210692
O       58.42203051      58.86775108      66.44211371
C       60.75010655      57.57125424      76.15252151
O       59.80923259      56.90595108      76.15252829
C       52.42689405      69.34205424      81.70132984
O       51.48602009      68.67675108      81.70133663
C       56.58850030      63.45665424      74.76531942
O       55.64762634      62.79135108      74.76532621
C       59.36290447      59.53305424      83.08853192
O       58.42203051      58.86775108      83.08853871
C       57.97570239      61.49485424      81.70132984
O       57.03482842      60.82955108      81.70133663
C       53.81409614      67.38025424      83.08853192
O       52.87322217      66.71495108      83.08853871
C       55.20129822      65.41845424      87.25013817
O       54.26042426      64.75315108      87.25014496
C       53.81409614      67.38025424      80.31412776
O       52.87322217      66.71495108      80.31413454
C       56.58850030      63.45665424      85.86293609
O       55.64762634      62.79135108      85.86294288
C       51.03969197      71.30385424      80.31412776
O       50.09881801      70.63855108      80.31413454
C       51.03969197      71.30385424      69.21651109
O       50.09881801      70.63855108      69.21651788
C       52.42689405      69.34205424      87.25013817
O       51.48602009      68.67675108      87.25014496
C       59.36290447      59.53305424      80.31412776
O       58.42203051      58.86775108      80.31413454
C       51.03969197      71.30385424      63.66770276
O       50.09881801      70.63855108      63.66770954
C       52.42689405      69.34205424      78.92692567
O       51.48602009      68.67675108      78.92693246
C       52.42689405      69.34205424      67.82930901
O       51.48602009      68.67675108      67.82931579
C       52.42689405      69.34205424      70.60371317
O       51.48602009      68.67675108      70.60371996
C       53.81409614      67.38025424      74.76531942
O       52.87322217      66.71495108      74.76532621
C       51.03969197      71.30385424      74.76531942
O       50.09881801      70.63855108      74.76532621
C       62.13730864      55.60945424      77.53972359
O       61.19643467      54.94415108      77.53973038
C       59.36290447      59.53305424      77.53972359
O       58.42203051      58.86775108      77.53973038
C       60.75010655      57.57125424      67.82930901
O       59.80923259      56.90595108      67.82931579
C       57.97570239      61.49485424      84.47573401
O       57.03482842      60.82955108      84.47574079
C       59.36290447      59.53305424      71.99091526
O       58.42203051      58.86775108      71.99092204
C       63.52451072      53.64765424      78.92692567
O       62.58363676      52.98235108      78.92693246
C       51.03969197      71.30385424      77.53972359
O       50.09881801      70.63855108      77.53973038
C       60.75010655      57.57125424      73.37811734
O       59.80923259      56.90595108      73.37812413
C       64.91171280      51.68585424      74.76531942
O       63.97083884      51.02055108      74.76532621
C       63.52451072      53.64765424      73.37811734
O       62.58363676      52.98235108      73.37812413
C       53.81409614      67.38025424      88.63734026
O       52.87322217      66.71495108      88.63734704
C       53.81409614      67.38025424      71.99091526
O       52.87322217      66.71495108      71.99092204
C       55.20129822      65.41845424      67.82930901
O       54.26042426      64.75315108      67.82931579
C       60.75010655      57.57125424      70.60371317
O       59.80923259      56.90595108      70.60371996
C       57.97570239      61.49485424      76.15252151
O       57.03482842      60.82955108      76.15252829
C       51.03969197      71.30385424      83.08853192
O       50.09881801      70.63855108      83.08853871
C       55.20129822      65.41845424      65.05490484
O       54.26042426      64.75315108      65.05491163
C       52.42689405      69.34205424      73.37811734
O       51.48602009      68.67675108      73.37812413
C       55.20129822      65.41845424      84.47573401
O       54.26042426      64.75315108      84.47574079
C       53.81409614      67.38025424      63.66770276
O       52.87322217      66.71495108      63.66770954
C       64.91171280      51.68585424      77.53972359
O       63.97083884      51.02055108      77.53973038
C       50.79192685      76.30960630      86.45564288
O       49.69872779      76.30960630      86.82004365
C       50.79192685      76.30960630      63.07497388
O       49.69872779      76.30960630      62.71057311
C       92.59716640      84.99503215      92.59716640
O       93.32596631      85.51037036      93.32596631
C       56.93345037      84.99503215      92.59716640
O       56.20465045      85.51037036      93.32596631
C       92.59716640      84.99503215      56.93345037
O       93.32596631      85.51037036      56.20465045
C       86.45564288      76.30960630      98.73868991
O       86.82004365      76.30960630      99.83188898
C       80.90683190      51.09155085      68.62378486
O       81.27123104      50.06087213      68.25938572
C       56.93345037      67.62418045      92.59716640
O       56.20465045      67.10884223      93.32596631
C       92.59716640      67.62418045      92.59716640
O       93.32596631      67.10884223      93.32596631
C       56.93345037      67.62418045      56.93345037
O       56.20465045      67.10884223      56.20465045
C       92.59716640      67.62418045      56.93345037
O       93.32596631      67.10884223      56.20465045
C       63.07497388      76.30960630      98.73868991
O       62.71057311      76.30960630      99.83188898
C       98.73868991      76.30960630      63.07497388
O       99.83188898      76.30960630      62.71057311
C       86.45564288      76.30960630      50.79192685
O       86.82004365      76.30960630      49.69872779
C       80.90683190     101.52766175      80.90683190
O       81.27123104     102.55834047      81.27123104
C       68.62378486     101.52766175      80.90683190
O       68.25938572     102.55834047      81.27123104
C       98.73868991      76.30960630      86.45564288
O       99.83188898      76.30960630      86.82004365
C       56.93345037      84.99503215      56.93345037
O       56.20465045      85.51037036      56.20465045
C       68.62378486     101.52766175      68.62378486
O       68.25938572     102.55834047      68.25938572
C       68.62378486      51.09155085      80.90683190
O       68.25938572      50.06087213      81.27123104
C       80.90683190      51.09155085      80.90683190
O       81.27123104      50.06087213      81.27123104
C       68.62378486      51.09155085      68.62378486
O       68.25938572      50.06087213      68.25938572
C       63.07497388      76.30960630      50.79192685
O       62.71057311      76.30960630      49.69872779
C       80.90683190     101.52766175      68.62378486
O       81.27123104     102.55834047      68.25938572
